@relation dataset

@attribute ID numeric
@attribute Time date 'yyyy/MM/dd HH:mm:ss:SSS'
@attribute 'Training round' numeric
@attribute inputs-1 numeric
@attribute inputs-2 numeric
@attribute inputs-3 numeric
@attribute inputs-4 numeric
@attribute inputs-5 numeric
@attribute inputs-6 numeric
@attribute inputs-7 numeric
@attribute inputs-8 numeric
@attribute inputs-9 numeric
@attribute inputs-10 numeric
@attribute inputs-11 numeric
@attribute inputs-12 numeric
@attribute inputs-13 numeric
@attribute inputs-14 numeric
@attribute inputs-15 numeric
@attribute inputs-16 numeric
@attribute inputs-17 numeric
@attribute inputs-18 numeric
@attribute inputs-19 numeric
@attribute inputs-20 numeric
@attribute inputs-21 numeric
@attribute inputs-22 numeric
@attribute inputs-23 numeric
@attribute outputs-1 numeric
@attribute outputs-2 numeric
@attribute outputs-3 numeric
@attribute outputs-4 numeric
@attribute outputs-5 numeric
@attribute outputs-6 numeric
@attribute outputs-7 numeric
@attribute outputs-8 numeric
@attribute outputs-9 numeric
@attribute outputs-10 numeric
@attribute outputs-11 numeric
@attribute outputs-12 numeric

@data
1,'2025/06/16 11:16:52:723',1,0.252371,0.07593,-0.034318,-0.06038,-0.04007,0.133642,0.415749,0.454914,0.01914,-0.004264,-0.086684,-0.004917,0,0.026577,0.582911,0.824979,-0.002979,0.488871,0.921419,-0.030737,0,0,0,1,0,0,0,0,0,0,0,0,0,0,0
2,'2025/06/16 11:16:52:730',1,0.252371,0.07593,-0.034318,-0.06038,-0.04007,0.133642,0.415749,0.454914,0.01914,-0.004264,-0.086684,-0.004917,0,0.026577,0.582911,0.824979,-0.002979,0.488871,0.921419,-0.030737,0,0,0,1,0,0,0,0,0,0,0,0,0,0,0
3,'2025/06/16 11:16:52:730',1,0.252371,0.07593,-0.034318,-0.06038,-0.04007,0.133642,0.415749,0.454914,0.01914,-0.004264,-0.086684,-0.004917,0,0.026577,0.582911,0.824979,-0.002979,0.488871,0.921419,-0.030737,0,0,0,1,0,0,0,0,0,0,0,0,0,0,0
4,'2025/06/16 11:16:52:735',1,0.252371,0.07593,-0.034318,-0.06038,-0.04007,0.133642,0.415749,0.454914,0.01914,-0.004264,-0.086684,-0.004917,0,0.026577,0.582911,0.824979,-0.002979,0.488871,0.921419,-0.030737,0,0,0,1,0,0,0,0,0,0,0,0,0,0,0
5,'2025/06/16 11:16:52:738',1,0.252371,0.07593,-0.034318,-0.06038,-0.04007,0.133642,0.415749,0.454914,0.01914,-0.004264,-0.086684,-0.004917,0,0.026577,0.582911,0.824979,-0.002979,0.488871,0.921419,-0.030737,0,0,0,1,0,0,0,0,0,0,0,0,0,0,0
6,'2025/06/16 11:16:52:743',1,0.252371,0.07593,-0.034318,-0.06038,-0.04007,0.133642,0.415749,0.454914,0.01914,-0.004264,-0.086684,-0.004917,0,0.026577,0.582911,0.824979,-0.002979,0.488871,0.921419,-0.030737,0,0,0,1,0,0,0,0,0,0,0,0,0,0,0
7,'2025/06/16 11:16:52:747',1,0.252371,0.07593,-0.034318,-0.06038,-0.04007,0.133642,0.415749,0.454914,0.01914,-0.004264,-0.086684,-0.004917,0,0.026577,0.582911,0.824979,-0.002979,0.488871,0.921419,-0.030737,0,0,0,1,0,0,0,0,0,0,0,0,0,0,0
8,'2025/06/16 11:16:52:750',1,0.252371,0.07593,-0.034318,-0.06038,-0.04007,0.133642,0.415749,0.454914,0.01914,-0.004264,-0.086684,-0.004917,0,0.026577,0.582911,0.824979,-0.002979,0.488871,0.921419,-0.030737,0,0,0,1,0,0,0,0,0,0,0,0,0,0,0
9,'2025/06/16 11:16:52:754',1,0.252371,0.07593,-0.034318,-0.06038,-0.04007,0.133642,0.415749,0.454914,0.01914,-0.004264,-0.086684,-0.004917,0,0.026577,0.582911,0.824979,-0.002979,0.488871,0.921419,-0.030737,0,0,0,1,0,0,0,0,0,0,0,0,0,0,0
10,'2025/06/16 11:16:52:759',1,0.252371,0.07593,-0.034318,-0.06038,-0.04007,0.133642,0.415749,0.454914,0.01914,-0.004264,-0.086684,-0.004917,0,0.026577,0.582911,0.824979,-0.002979,0.488871,0.921419,-0.030737,0,0,0,1,0,0,0,0,0,0,0,0,0,0,0
11,'2025/06/16 11:16:52:763',1,0.252371,0.07593,-0.034318,-0.06038,-0.04007,0.133642,0.415749,0.454914,0.01914,-0.004264,-0.086684,-0.004917,0,0.026577,0.582911,0.824979,-0.002979,0.488871,0.921419,-0.030737,0,0,0,1,0,0,0,0,0,0,0,0,0,0,0
12,'2025/06/16 11:16:52:767',1,0.252371,0.07593,-0.034318,-0.06038,-0.04007,0.133642,0.415749,0.454914,0.01914,-0.004264,-0.086684,-0.004917,0,0.026577,0.582911,0.824979,-0.002979,0.488871,0.921419,-0.030737,0,0,0,1,0,0,0,0,0,0,0,0,0,0,0
13,'2025/06/16 11:16:52:771',1,0.252371,0.07593,-0.034318,-0.06038,-0.04007,0.133642,0.415749,0.454914,0.01914,-0.004264,-0.086684,-0.004917,0,0.026577,0.582911,0.824979,-0.002979,0.488871,0.921419,-0.030737,0,0,0,1,0,0,0,0,0,0,0,0,0,0,0
14,'2025/06/16 11:16:52:776',1,0.252371,0.07593,-0.034318,-0.06038,-0.04007,0.133642,0.415749,0.454914,0.01914,-0.004264,-0.086684,-0.004917,0,0.026577,0.582911,0.824979,-0.002979,0.488871,0.921419,-0.030737,0,0,0,1,0,0,0,0,0,0,0,0,0,0,0
15,'2025/06/16 11:16:52:780',1,0.252371,0.07593,-0.034318,-0.06038,-0.04007,0.133642,0.415749,0.454914,0.01914,-0.004264,-0.086684,-0.004917,0,0.026577,0.582911,0.824979,-0.002979,0.488871,0.921419,-0.030737,0,0,0,1,0,0,0,0,0,0,0,0,0,0,0
16,'2025/06/16 11:16:52:784',1,0.252371,0.07593,-0.034318,-0.06038,-0.04007,0.133642,0.415749,0.454914,0.01914,-0.004264,-0.086684,-0.004917,0,0.026577,0.582911,0.824979,-0.002979,0.488871,0.921419,-0.030737,0,0,0,1,0,0,0,0,0,0,0,0,0,0,0
17,'2025/06/16 11:16:52:789',1,0.252371,0.07593,-0.034318,-0.06038,-0.04007,0.133642,0.415749,0.454914,0.01914,-0.004264,-0.086684,-0.004917,0,0.026577,0.582911,0.824979,-0.002979,0.488871,0.921419,-0.030737,0,0,0,1,0,0,0,0,0,0,0,0,0,0,0
18,'2025/06/16 11:16:52:792',1,0.252371,0.07593,-0.034318,-0.06038,-0.04007,0.133642,0.415749,0.454914,0.01914,-0.004264,-0.086684,-0.004917,0,0.026577,0.582911,0.824979,-0.002979,0.488871,0.921419,-0.030737,0,0,0,1,0,0,0,0,0,0,0,0,0,0,0
19,'2025/06/16 11:16:52:797',1,0.252371,0.07593,-0.034318,-0.06038,-0.04007,0.133642,0.415749,0.454914,0.01914,-0.004264,-0.086684,-0.004917,0,0.026577,0.582911,0.824979,-0.002979,0.488871,0.921419,-0.030737,0,0,0,1,0,0,0,0,0,0,0,0,0,0,0
20,'2025/06/16 11:16:52:801',1,0.252371,0.07593,-0.034318,-0.06038,-0.04007,0.133642,0.415749,0.454914,0.01914,-0.004264,-0.086684,-0.004917,0,0.026577,0.582911,0.824979,-0.002979,0.488871,0.921419,-0.030737,0,0,0,1,0,0,0,0,0,0,0,0,0,0,0
21,'2025/06/16 11:16:52:805',1,0.252371,0.07593,-0.034318,-0.06038,-0.04007,0.133642,0.415749,0.454914,0.01914,-0.004264,-0.086684,-0.004917,0,0.026577,0.582911,0.824979,-0.002979,0.488871,0.921419,-0.030737,0,0,0,1,0,0,0,0,0,0,0,0,0,0,0
22,'2025/06/16 11:16:52:809',1,0.252371,0.07593,-0.034318,-0.06038,-0.04007,0.133642,0.415749,0.454914,0.01914,-0.004264,-0.086684,-0.004917,0,0.026577,0.582911,0.824979,-0.002979,0.488871,0.921419,-0.030737,0,0,0,1,0,0,0,0,0,0,0,0,0,0,0
23,'2025/06/16 11:16:52:814',1,0.252371,0.07593,-0.034318,-0.06038,-0.04007,0.133642,0.415749,0.454914,0.01914,-0.004264,-0.086684,-0.004917,0,0.026577,0.582911,0.824979,-0.002979,0.488871,0.921419,-0.030737,0,0,0,1,0,0,0,0,0,0,0,0,0,0,0
24,'2025/06/16 11:16:52:818',1,0.252371,0.07593,-0.034318,-0.06038,-0.04007,0.133642,0.415749,0.454914,0.01914,-0.004264,-0.086684,-0.004917,0,0.026577,0.582911,0.824979,-0.002979,0.488871,0.921419,-0.030737,0,0,0,1,0,0,0,0,0,0,0,0,0,0,0
25,'2025/06/16 11:16:52:822',1,0.252371,0.07593,-0.034318,-0.06038,-0.04007,0.133642,0.415749,0.454914,0.01914,-0.004264,-0.086684,-0.004917,0,0.026577,0.582911,0.824979,-0.002979,0.488871,0.921419,-0.030737,0,0,0,1,0,0,0,0,0,0,0,0,0,0,0
26,'2025/06/16 11:16:52:827',1,0.252371,0.07593,-0.034318,-0.06038,-0.04007,0.133642,0.415749,0.454914,0.01914,-0.004264,-0.086684,-0.004917,0,0.026577,0.582911,0.824979,-0.002979,0.488871,0.921419,-0.030737,0,0,0,1,0,0,0,0,0,0,0,0,0,0,0
27,'2025/06/16 11:16:52:832',1,0.252371,0.07593,-0.034318,-0.06038,-0.04007,0.133642,0.415749,0.454914,0.01914,-0.004264,-0.086684,-0.004917,0,0.026577,0.582911,0.824979,-0.002979,0.488871,0.921419,-0.030737,0,0,0,1,0,0,0,0,0,0,0,0,0,0,0
28,'2025/06/16 11:16:52:836',1,0.252371,0.07593,-0.034318,-0.06038,-0.04007,0.133642,0.415749,0.454914,0.01914,-0.004264,-0.086684,-0.004917,0,0.026577,0.582911,0.824979,-0.002979,0.488871,0.921419,-0.030737,0,0,0,1,0,0,0,0,0,0,0,0,0,0,0
29,'2025/06/16 11:16:52:840',1,0.252371,0.07593,-0.034318,-0.06038,-0.04007,0.133642,0.415749,0.454914,0.01914,-0.004264,-0.086684,-0.004917,0,0.026577,0.582911,0.824979,-0.002979,0.488871,0.921419,-0.030737,0,0,0,1,0,0,0,0,0,0,0,0,0,0,0
30,'2025/06/16 11:16:52:844',1,0.252371,0.07593,-0.034318,-0.06038,-0.04007,0.133642,0.415749,0.454914,0.01914,-0.004264,-0.086684,-0.004917,0,0.026577,0.582911,0.824979,-0.002979,0.488871,0.921419,-0.030737,0,0,0,1,0,0,0,0,0,0,0,0,0,0,0
31,'2025/06/16 11:16:52:849',1,0.252371,0.07593,-0.034318,-0.06038,-0.04007,0.133642,0.415749,0.454914,0.01914,-0.004264,-0.086684,-0.004917,0,0.026577,0.582911,0.824979,-0.002979,0.488871,0.921419,-0.030737,0,0,0,1,0,0,0,0,0,0,0,0,0,0,0
32,'2025/06/16 11:16:52:853',1,0.252371,0.07593,-0.034318,-0.06038,-0.04007,0.133642,0.415749,0.454914,0.01914,-0.004264,-0.086684,-0.004917,0,0.026577,0.582911,0.824979,-0.002979,0.488871,0.921419,-0.030737,0,0,0,1,0,0,0,0,0,0,0,0,0,0,0
33,'2025/06/16 11:16:52:857',1,0.252371,0.07593,-0.034318,-0.06038,-0.04007,0.133642,0.415749,0.454914,0.01914,-0.004264,-0.086684,-0.004917,0,0.026577,0.582911,0.824979,-0.002979,0.488871,0.921419,-0.030737,0,0,0,1,0,0,0,0,0,0,0,0,0,0,0
34,'2025/06/16 11:16:52:862',1,0.252371,0.07593,-0.034318,-0.06038,-0.04007,0.133642,0.415749,0.454914,0.01914,-0.004264,-0.086684,-0.004917,0,0.026577,0.582911,0.824979,-0.002979,0.488871,0.921419,-0.030737,0,0,0,1,0,0,0,0,0,0,0,0,0,0,0
35,'2025/06/16 11:16:52:867',1,0.252371,0.07593,-0.034318,-0.06038,-0.04007,0.133642,0.415749,0.454914,0.01914,-0.004264,-0.086684,-0.004917,0,0.026577,0.582911,0.824979,-0.002979,0.488871,0.921419,-0.030737,0,0,0,1,0,0,0,0,0,0,0,0,0,0,0
36,'2025/06/16 11:16:52:870',1,0.252371,0.07593,-0.034318,-0.06038,-0.04007,0.133642,0.415749,0.454914,0.01914,-0.004264,-0.086684,-0.004917,0,0.026577,0.582911,0.824979,-0.002979,0.488871,0.921419,-0.030737,0,0,0,1,0,0,0,0,0,0,0,0,0,0,0
37,'2025/06/16 11:16:52:874',1,0.252371,0.07593,-0.034318,-0.06038,-0.04007,0.133642,0.415749,0.454914,0.01914,-0.004264,-0.086684,-0.004917,0,0.026577,0.582911,0.824979,-0.002979,0.488871,0.921419,-0.030737,0,0,0,1,0,0,0,0,0,0,0,0,0,0,0
38,'2025/06/16 11:16:52:879',1,0.252371,0.07593,-0.034318,-0.06038,-0.04007,0.133642,0.415749,0.454914,0.01914,-0.004264,-0.086684,-0.004917,0,0.026577,0.582911,0.824979,-0.002979,0.488871,0.921419,-0.030737,0,0,0,1,0,0,0,0,0,0,0,0,0,0,0
39,'2025/06/16 11:16:52:884',1,0.252371,0.07593,-0.034318,-0.06038,-0.04007,0.133642,0.415749,0.454914,0.01914,-0.004264,-0.086684,-0.004917,0,0.026577,0.582911,0.824979,-0.002979,0.488871,0.921419,-0.030737,0,0,0,1,0,0,0,0,0,0,0,0,0,0,0
40,'2025/06/16 11:16:52:888',1,0.252371,0.07593,-0.034318,-0.06038,-0.04007,0.133642,0.415749,0.454914,0.01914,-0.004264,-0.086684,-0.004917,0,0.026577,0.582911,0.824979,-0.002979,0.488871,0.921419,-0.030737,0,0,0,1,0,0,0,0,0,0,0,0,0,0,0
41,'2025/06/16 11:16:52:892',1,0.252371,0.07593,-0.034318,-0.06038,-0.04007,0.133642,0.415749,0.454914,0.01914,-0.004264,-0.086684,-0.004917,0,0.026577,0.582911,0.824979,-0.002979,0.488871,0.921419,-0.030737,0,0,0,1,0,0,0,0,0,0,0,0,0,0,0
42,'2025/06/16 11:16:52:896',1,0.252371,0.07593,-0.034318,-0.06038,-0.04007,0.133642,0.415749,0.454914,0.01914,-0.004264,-0.086684,-0.004917,0,0.026577,0.582911,0.824979,-0.002979,0.488871,0.921419,-0.030737,0,0,0,1,0,0,0,0,0,0,0,0,0,0,0
43,'2025/06/16 11:16:52:899',1,0.252371,0.07593,-0.034318,-0.06038,-0.04007,0.133642,0.415749,0.454914,0.01914,-0.004264,-0.086684,-0.004917,0,0.026577,0.582911,0.824979,-0.002979,0.488871,0.921419,-0.030737,0,0,0,1,0,0,0,0,0,0,0,0,0,0,0
44,'2025/06/16 11:16:52:903',1,0.252371,0.07593,-0.034318,-0.06038,-0.04007,0.133642,0.415749,0.454914,0.01914,-0.004264,-0.086684,-0.004917,0,0.026577,0.582911,0.824979,-0.002979,0.488871,0.921419,-0.030737,0,0,0,1,0,0,0,0,0,0,0,0,0,0,0
45,'2025/06/16 11:16:52:907',1,0.252371,0.07593,-0.034318,-0.06038,-0.04007,0.133642,0.415749,0.454914,0.01914,-0.004264,-0.086684,-0.004917,0,0.026577,0.582911,0.824979,-0.002979,0.488871,0.921419,-0.030737,0,0,0,1,0,0,0,0,0,0,0,0,0,0,0
46,'2025/06/16 11:16:52:909',1,0.252371,0.07593,-0.034318,-0.06038,-0.04007,0.133642,0.415749,0.454914,0.01914,-0.004264,-0.086684,-0.004917,0,0.026577,0.582911,0.824979,-0.002979,0.488871,0.921419,-0.030737,0,0,0,1,0,0,0,0,0,0,0,0,0,0,0
47,'2025/06/16 11:16:52:913',1,0.252371,0.07593,-0.034318,-0.06038,-0.04007,0.133642,0.415749,0.454914,0.01914,-0.004264,-0.086684,-0.004917,0,0.026577,0.582911,0.824979,-0.002979,0.488871,0.921419,-0.030737,0,0,0,1,0,0,0,0,0,0,0,0,0,0,0
48,'2025/06/16 11:16:52:916',1,0.252371,0.07593,-0.034318,-0.06038,-0.04007,0.133642,0.415749,0.454914,0.01914,-0.004264,-0.086684,-0.004917,0,0.026577,0.582911,0.824979,-0.002979,0.488871,0.921419,-0.030737,0,0,0,1,0,0,0,0,0,0,0,0,0,0,0
49,'2025/06/16 11:16:52:920',1,0.252371,0.07593,-0.034318,-0.06038,-0.04007,0.133642,0.415749,0.454914,0.01914,-0.004264,-0.086684,-0.004917,0,0.026577,0.582911,0.824979,-0.002979,0.488871,0.921419,-0.030737,0,0,0,1,0,0,0,0,0,0,0,0,0,0,0
50,'2025/06/16 11:16:52:922',1,0.252371,0.07593,-0.034318,-0.06038,-0.04007,0.133642,0.415749,0.454914,0.01914,-0.004264,-0.086684,-0.004917,0,0.026577,0.582911,0.824979,-0.002979,0.488871,0.921419,-0.030737,0,0,0,1,0,0,0,0,0,0,0,0,0,0,0
51,'2025/06/16 11:16:52:926',1,0.252371,0.07593,-0.034318,-0.06038,-0.04007,0.133642,0.415749,0.454914,0.01914,-0.004264,-0.086684,-0.004917,0,0.026577,0.582911,0.824979,-0.002979,0.488871,0.921419,-0.030737,0,0,0,1,0,0,0,0,0,0,0,0,0,0,0
52,'2025/06/16 11:16:52:929',1,0.252371,0.07593,-0.034318,-0.06038,-0.04007,0.133642,0.415749,0.454914,0.01914,-0.004264,-0.086684,-0.004917,0,0.026577,0.582911,0.824979,-0.002979,0.488871,0.921419,-0.030737,0,0,0,1,0,0,0,0,0,0,0,0,0,0,0
53,'2025/06/16 11:16:52:933',1,0.252371,0.07593,-0.034318,-0.06038,-0.04007,0.133642,0.415749,0.454914,0.01914,-0.004264,-0.086684,-0.004917,0,0.026577,0.582911,0.824979,-0.002979,0.488871,0.921419,-0.030737,0,0,0,1,0,0,0,0,0,0,0,0,0,0,0
54,'2025/06/16 11:16:52:936',1,0.252371,0.07593,-0.034318,-0.06038,-0.04007,0.133642,0.415749,0.454914,0.01914,-0.004264,-0.086684,-0.004917,0,0.026577,0.582911,0.824979,-0.002979,0.488871,0.921419,-0.030737,0,0,0,1,0,0,0,0,0,0,0,0,0,0,0
55,'2025/06/16 11:16:52:940',1,0.252371,0.07593,-0.034318,-0.06038,-0.04007,0.133642,0.415749,0.454914,0.01914,-0.004264,-0.086684,-0.004917,0,0.026577,0.582911,0.824979,-0.002979,0.488871,0.921419,-0.030737,0,0,0,1,0,0,0,0,0,0,0,0,0,0,0
56,'2025/06/16 11:16:52:944',1,0.252371,0.07593,-0.034318,-0.06038,-0.04007,0.133642,0.415749,0.454914,0.01914,-0.004264,-0.086684,-0.004917,0,0.026577,0.582911,0.824979,-0.002979,0.488871,0.921419,-0.030737,0,0,0,1,0,0,0,0,0,0,0,0,0,0,0
57,'2025/06/16 11:16:52:948',1,0.252371,0.07593,-0.034318,-0.06038,-0.04007,0.133642,0.415749,0.454914,0.01914,-0.004264,-0.086684,-0.004917,0,0.026577,0.582911,0.824979,-0.002979,0.488871,0.921419,-0.030737,0,0,0,1,0,0,0,0,0,0,0,0,0,0,0
58,'2025/06/16 11:16:52:951',1,0.252371,0.07593,-0.034318,-0.06038,-0.04007,0.133642,0.415749,0.454914,0.01914,-0.004264,-0.086684,-0.004917,0,0.026577,0.582911,0.824979,-0.002979,0.488871,0.921419,-0.030737,0,0,0,1,0,0,0,0,0,0,0,0,0,0,0
59,'2025/06/16 11:16:52:955',1,0.252371,0.07593,-0.034318,-0.06038,-0.04007,0.133642,0.415749,0.454914,0.01914,-0.004264,-0.086684,-0.004917,0,0.026577,0.582911,0.824979,-0.002979,0.488871,0.921419,-0.030737,0,0,0,1,0,0,0,0,0,0,0,0,0,0,0
60,'2025/06/16 11:16:52:958',1,0.252371,0.07593,-0.034318,-0.06038,-0.04007,0.133642,0.415749,0.454914,0.01914,-0.004264,-0.086684,-0.004917,0,0.026577,0.582911,0.824979,-0.002979,0.488871,0.921419,-0.030737,0,0,0,1,0,0,0,0,0,0,0,0,0,0,0
61,'2025/06/16 11:16:52:961',1,0.252371,0.07593,-0.034318,-0.06038,-0.04007,0.133642,0.415749,0.454914,0.01914,-0.004264,-0.086684,-0.004917,0,0.026577,0.582911,0.824979,-0.002979,0.488871,0.921419,-0.030737,0,0,0,1,0,0,0,0,0,0,0,0,0,0,0
62,'2025/06/16 11:16:52:965',1,0.252371,0.07593,-0.034318,-0.06038,-0.04007,0.133642,0.415749,0.454914,0.01914,-0.004264,-0.086684,-0.004917,0,0.026577,0.582911,0.824979,-0.002979,0.488871,0.921419,-0.030737,0,0,0,1,0,0,0,0,0,0,0,0,0,0,0
63,'2025/06/16 11:16:52:969',1,0.252371,0.07593,-0.034318,-0.06038,-0.04007,0.133642,0.415749,0.454914,0.01914,-0.004264,-0.086684,-0.004917,0,0.026577,0.582911,0.824979,-0.002979,0.488871,0.921419,-0.030737,0,0,0,1,0,0,0,0,0,0,0,0,0,0,0
64,'2025/06/16 11:16:52:972',1,0.252371,0.07593,-0.034318,-0.06038,-0.04007,0.133642,0.415749,0.454914,0.01914,-0.004264,-0.086684,-0.004917,0,0.026577,0.582911,0.824979,-0.002979,0.488871,0.921419,-0.030737,0,0,0,1,0,0,0,0,0,0,0,0,0,0,0
65,'2025/06/16 11:16:52:975',1,0.252371,0.07593,-0.034318,-0.06038,-0.04007,0.133642,0.415749,0.454914,0.01914,-0.004264,-0.086684,-0.004917,0,0.026577,0.582911,0.824979,-0.002979,0.488871,0.921419,-0.030737,0,0,0,1,0,0,0,0,0,0,0,0,0,0,0
66,'2025/06/16 11:16:52:978',1,0.252371,0.07593,-0.034318,-0.06038,-0.04007,0.133642,0.415749,0.454914,0.01914,-0.004264,-0.086684,-0.004917,0,0.026577,0.582911,0.824979,-0.002979,0.488871,0.921419,-0.030737,0,0,0,1,0,0,0,0,0,0,0,0,0,0,0
67,'2025/06/16 11:16:52:981',1,0.252371,0.07593,-0.034318,-0.06038,-0.04007,0.133642,0.415749,0.454914,0.01914,-0.004264,-0.086684,-0.004917,0,0.026577,0.582911,0.824979,-0.002979,0.488871,0.921419,-0.030737,0,0,0,1,0,0,0,0,0,0,0,0,0,0,0
68,'2025/06/16 11:16:52:984',1,0.252371,0.07593,-0.034318,-0.06038,-0.04007,0.133642,0.415749,0.454914,0.01914,-0.004264,-0.086684,-0.004917,0,0.026577,0.582911,0.824979,-0.002979,0.488871,0.921419,-0.030737,0,0,0,1,0,0,0,0,0,0,0,0,0,0,0
69,'2025/06/16 11:16:52:988',1,0.252371,0.07593,-0.034318,-0.06038,-0.04007,0.133642,0.415749,0.454914,0.01914,-0.004264,-0.086684,-0.004917,0,0.026577,0.582911,0.824979,-0.002979,0.488871,0.921419,-0.030737,0,0,0,1,0,0,0,0,0,0,0,0,0,0,0
70,'2025/06/16 11:16:52:990',1,0.252371,0.07593,-0.034318,-0.06038,-0.04007,0.133642,0.415749,0.454914,0.01914,-0.004264,-0.086684,-0.004917,0,0.026577,0.582911,0.824979,-0.002979,0.488871,0.921419,-0.030737,0,0,0,1,0,0,0,0,0,0,0,0,0,0,0
71,'2025/06/16 11:16:52:994',1,0.252371,0.07593,-0.034318,-0.06038,-0.04007,0.133642,0.415749,0.454914,0.01914,-0.004264,-0.086684,-0.004917,0,0.026577,0.582911,0.824979,-0.002979,0.488871,0.921419,-0.030737,0,0,0,1,0,0,0,0,0,0,0,0,0,0,0
72,'2025/06/16 11:16:52:997',1,0.252371,0.07593,-0.034318,-0.06038,-0.04007,0.133642,0.415749,0.454914,0.01914,-0.004264,-0.086684,-0.004917,0,0.026577,0.582911,0.824979,-0.002979,0.488871,0.921419,-0.030737,0,0,0,1,0,0,0,0,0,0,0,0,0,0,0
73,'2025/06/16 11:16:53:000',1,0.252371,0.07593,-0.034318,-0.06038,-0.04007,0.133642,0.415749,0.454914,0.01914,-0.004264,-0.086684,-0.004917,0,0.026577,0.582911,0.824979,-0.002979,0.488871,0.921419,-0.030737,0,0,0,1,0,0,0,0,0,0,0,0,0,0,0
74,'2025/06/16 11:16:53:003',1,0.252371,0.07593,-0.034318,-0.06038,-0.04007,0.133642,0.415749,0.454914,0.01914,-0.004264,-0.086684,-0.004917,0,0.026577,0.582911,0.824979,-0.002979,0.488871,0.921419,-0.030737,0,0,0,1,0,0,0,0,0,0,0,0,0,0,0
75,'2025/06/16 11:16:53:007',1,0.252371,0.07593,-0.034318,-0.06038,-0.04007,0.133642,0.415749,0.454914,0.01914,-0.004264,-0.086684,-0.004917,0,0.026577,0.582911,0.824979,-0.002979,0.488871,0.921419,-0.030737,0,0,0,1,0,0,0,0,0,0,0,0,0,0,0
76,'2025/06/16 11:16:53:009',1,0.252371,0.07593,-0.034318,-0.06038,-0.04007,0.133642,0.415749,0.454914,0.01914,-0.004264,-0.086684,-0.004917,0,0.026577,0.582911,0.824979,-0.002979,0.488871,0.921419,-0.030737,0,0,0,1,0,0,0,0,0,0,0,0,0,0,0
77,'2025/06/16 11:16:53:013',1,0.252371,0.07593,-0.034318,-0.06038,-0.04007,0.133642,0.415749,0.454914,0.01914,-0.004264,-0.086684,-0.004917,0,0.026577,0.582911,0.824979,-0.002979,0.488871,0.921419,-0.030737,0,0,0,1,0,0,0,0,0,0,0,0,0,0,0
78,'2025/06/16 11:16:53:016',1,0.252371,0.07593,-0.034318,-0.06038,-0.04007,0.133642,0.415749,0.454914,0.01914,-0.004264,-0.086684,-0.004917,0,0.026577,0.582911,0.824979,-0.002979,0.488871,0.921419,-0.030737,0,0,0,1,0,0,0,0,0,0,0,0,0,0,0
79,'2025/06/16 11:16:53:019',1,0.252371,0.07593,-0.034318,-0.06038,-0.04007,0.133642,0.415749,0.454914,0.01914,-0.004264,-0.086684,-0.004917,0,0.026577,0.582911,0.824979,-0.002979,0.488871,0.921419,-0.030737,0,0,0,1,0,0,0,0,0,0,0,0,0,0,0
80,'2025/06/16 11:16:53:023',1,0.252371,0.07593,-0.034318,-0.06038,-0.04007,0.133642,0.415749,0.454914,0.01914,-0.004264,-0.086684,-0.004917,0,0.026577,0.582911,0.824979,-0.002979,0.488871,0.921419,-0.030737,0,0,0,1,0,0,0,0,0,0,0,0,0,0,0
81,'2025/06/16 11:16:53:026',1,0.252371,0.07593,-0.034318,-0.06038,-0.04007,0.133642,0.415749,0.454914,0.01914,-0.004264,-0.086684,-0.004917,0,0.026577,0.582911,0.824979,-0.002979,0.488871,0.921419,-0.030737,0,0,0,1,0,0,0,0,0,0,0,0,0,0,0
82,'2025/06/16 11:16:53:029',1,0.252371,0.07593,-0.034318,-0.06038,-0.04007,0.133642,0.415749,0.454914,0.01914,-0.004264,-0.086684,-0.004917,0,0.026577,0.582911,0.824979,-0.002979,0.488871,0.921419,-0.030737,0,0,0,1,0,0,0,0,0,0,0,0,0,0,0
83,'2025/06/16 11:16:53:032',1,0.252371,0.07593,-0.034318,-0.06038,-0.04007,0.133642,0.415749,0.454914,0.01914,-0.004264,-0.086684,-0.004917,0,0.026577,0.582911,0.824979,-0.002979,0.488871,0.921419,-0.030737,0,0,0,1,0,0,0,0,0,0,0,0,0,0,0
84,'2025/06/16 11:16:53:036',1,0.252371,0.07593,-0.034318,-0.06038,-0.04007,0.133642,0.415749,0.454914,0.01914,-0.004264,-0.086684,-0.004917,0,0.026577,0.582911,0.824979,-0.002979,0.488871,0.921419,-0.030737,0,0,0,1,0,0,0,0,0,0,0,0,0,0,0
85,'2025/06/16 11:16:53:039',1,0.252371,0.07593,-0.034318,-0.06038,-0.04007,0.133642,0.415749,0.454914,0.01914,-0.004264,-0.086684,-0.004917,0,0.026577,0.582911,0.824979,-0.002979,0.488871,0.921419,-0.030737,0,0,0,1,0,0,0,0,0,0,0,0,0,0,0
86,'2025/06/16 11:16:53:042',1,0.252371,0.07593,-0.034318,-0.06038,-0.04007,0.133642,0.415749,0.454914,0.01914,-0.004264,-0.086684,-0.004917,0,0.026577,0.582911,0.824979,-0.002979,0.488871,0.921419,-0.030737,0,0,0,1,0,0,0,0,0,0,0,0,0,0,0
87,'2025/06/16 11:16:53:046',1,0.252371,0.07593,-0.034318,-0.06038,-0.04007,0.133642,0.415749,0.454914,0.01914,-0.004264,-0.086684,-0.004917,0,0.026577,0.582911,0.824979,-0.002979,0.488871,0.921419,-0.030737,0,0,0,1,0,0,0,0,0,0,0,0,0,0,0
88,'2025/06/16 11:16:53:049',1,0.252371,0.07593,-0.034318,-0.06038,-0.04007,0.133642,0.415749,0.454914,0.01914,-0.004264,-0.086684,-0.004917,0,0.026577,0.582911,0.824979,-0.002979,0.488871,0.921419,-0.030737,0,0,0,1,0,0,0,0,0,0,0,0,0,0,0
89,'2025/06/16 11:16:53:052',1,0.252371,0.07593,-0.034318,-0.06038,-0.04007,0.133642,0.415749,0.454914,0.01914,-0.004264,-0.086684,-0.004917,0,0.026577,0.582911,0.824979,-0.002979,0.488871,0.921419,-0.030737,0,0,0,1,0,0,0,0,0,0,0,0,0,0,0
90,'2025/06/16 11:16:53:055',1,0.252371,0.07593,-0.034318,-0.06038,-0.04007,0.133642,0.415749,0.454914,0.01914,-0.004264,-0.086684,-0.004917,0,0.026577,0.582911,0.824979,-0.002979,0.488871,0.921419,-0.030737,0,0,0,1,0,0,0,0,0,0,0,0,0,0,0
91,'2025/06/16 11:16:53:059',1,0.252371,0.07593,-0.034318,-0.06038,-0.04007,0.133642,0.415749,0.454914,0.01914,-0.004264,-0.086684,-0.004917,0,0.026577,0.582911,0.824979,-0.002979,0.488871,0.921419,-0.030737,0,0,0,1,0,0,0,0,0,0,0,0,0,0,0
92,'2025/06/16 11:16:53:061',1,0.252371,0.07593,-0.034318,-0.06038,-0.04007,0.133642,0.415749,0.454914,0.01914,-0.004264,-0.086684,-0.004917,0,0.026577,0.582911,0.824979,-0.002979,0.488871,0.921419,-0.030737,0,0,0,1,0,0,0,0,0,0,0,0,0,0,0
93,'2025/06/16 11:16:53:065',1,0.252371,0.07593,-0.034318,-0.06038,-0.04007,0.133642,0.415749,0.454914,0.01914,-0.004264,-0.086684,-0.004917,0,0.026577,0.582911,0.824979,-0.002979,0.488871,0.921419,-0.030737,0,0,0,1,0,0,0,0,0,0,0,0,0,0,0
94,'2025/06/16 11:16:53:068',1,0.252371,0.07593,-0.034318,-0.06038,-0.04007,0.133642,0.415749,0.454914,0.01914,-0.004264,-0.086684,-0.004917,0,0.026577,0.582911,0.824979,-0.002979,0.488871,0.921419,-0.030737,0,0,0,1,0,0,0,0,0,0,0,0,0,0,0
95,'2025/06/16 11:16:53:071',1,0.252371,0.07593,-0.034318,-0.06038,-0.04007,0.133642,0.415749,0.454914,0.01914,-0.004264,-0.086684,-0.004917,0,0.026577,0.582911,0.824979,-0.002979,0.488871,0.921419,-0.030737,0,0,0,1,0,0,0,0,0,0,0,0,0,0,0
96,'2025/06/16 11:16:53:075',1,0.252371,0.07593,-0.034318,-0.06038,-0.04007,0.133642,0.415749,0.454914,0.01914,-0.004264,-0.086684,-0.004917,0,0.026577,0.582911,0.824979,-0.002979,0.488871,0.921419,-0.030737,0,0,0,1,0,0,0,0,0,0,0,0,0,0,0
97,'2025/06/16 11:16:53:077',1,0.252371,0.07593,-0.034318,-0.06038,-0.04007,0.133642,0.415749,0.454914,0.01914,-0.004264,-0.086684,-0.004917,0,0.026577,0.582911,0.824979,-0.002979,0.488871,0.921419,-0.030737,0,0,0,1,0,0,0,0,0,0,0,0,0,0,0
98,'2025/06/16 11:16:53:081',1,0.252371,0.07593,-0.034318,-0.06038,-0.04007,0.133642,0.415749,0.454914,0.01914,-0.004264,-0.086684,-0.004917,0,0.026577,0.582911,0.824979,-0.002979,0.488871,0.921419,-0.030737,0,0,0,1,0,0,0,0,0,0,0,0,0,0,0
99,'2025/06/16 11:16:53:084',1,0.252371,0.07593,-0.034318,-0.06038,-0.04007,0.133642,0.415749,0.454914,0.01914,-0.004264,-0.086684,-0.004917,0,0.026577,0.582911,0.824979,-0.002979,0.488871,0.921419,-0.030737,0,0,0,1,0,0,0,0,0,0,0,0,0,0,0
100,'2025/06/16 11:16:53:087',1,0.252371,0.07593,-0.034318,-0.06038,-0.04007,0.133642,0.415749,0.454914,0.01914,-0.004264,-0.086684,-0.004917,0,0.026577,0.582911,0.824979,-0.002979,0.488871,0.921419,-0.030737,0,0,0,1,0,0,0,0,0,0,0,0,0,0,0
101,'2025/06/16 11:16:53:091',1,0.252371,0.07593,-0.034318,-0.06038,-0.04007,0.133642,0.415749,0.454914,0.01914,-0.004264,-0.086684,-0.004917,0,0.026577,0.582911,0.824979,-0.002979,0.488871,0.921419,-0.030737,0,0,0,1,0,0,0,0,0,0,0,0,0,0,0
102,'2025/06/16 11:16:53:093',1,0.252371,0.07593,-0.034318,-0.06038,-0.04007,0.133642,0.415749,0.454914,0.01914,-0.004264,-0.086684,-0.004917,0,0.026577,0.582911,0.824979,-0.002979,0.488871,0.921419,-0.030737,0,0,0,1,0,0,0,0,0,0,0,0,0,0,0
103,'2025/06/16 11:16:53:097',1,0.252371,0.07593,-0.034318,-0.06038,-0.04007,0.133642,0.415749,0.454914,0.01914,-0.004264,-0.086684,-0.004917,0,0.026577,0.582911,0.824979,-0.002979,0.488871,0.921419,-0.030737,0,0,0,1,0,0,0,0,0,0,0,0,0,0,0
104,'2025/06/16 11:16:53:099',1,0.252371,0.07593,-0.034318,-0.06038,-0.04007,0.133642,0.415749,0.454914,0.01914,-0.004264,-0.086684,-0.004917,0,0.026577,0.582911,0.824979,-0.002979,0.488871,0.921419,-0.030737,0,0,0,1,0,0,0,0,0,0,0,0,0,0,0
105,'2025/06/16 11:16:53:103',1,0.252371,0.07593,-0.034318,-0.06038,-0.04007,0.133642,0.415749,0.454914,0.01914,-0.004264,-0.086684,-0.004917,0,0.026577,0.582911,0.824979,-0.002979,0.488871,0.921419,-0.030737,0,0,0,1,0,0,0,0,0,0,0,0,0,0,0
106,'2025/06/16 11:16:53:107',1,0.252371,0.07593,-0.034318,-0.06038,-0.04007,0.133642,0.415749,0.454914,0.01914,-0.004264,-0.086684,-0.004917,0,0.026577,0.582911,0.824979,-0.002979,0.488871,0.921419,-0.030737,0,0,0,1,0,0,0,0,0,0,0,0,0,0,0
107,'2025/06/16 11:16:53:110',1,0.252371,0.07593,-0.034318,-0.06038,-0.04007,0.133642,0.415749,0.454914,0.01914,-0.004264,-0.086684,-0.004917,0,0.026577,0.582911,0.824979,-0.002979,0.488871,0.921419,-0.030737,0,0,0,1,0,0,0,0,0,0,0,0,0,0,0
108,'2025/06/16 11:16:53:112',1,0.252371,0.07593,-0.034318,-0.06038,-0.04007,0.133642,0.415749,0.454914,0.01914,-0.004264,-0.086684,-0.004917,0,0.026577,0.582911,0.824979,-0.002979,0.488871,0.921419,-0.030737,0,0,0,1,0,0,0,0,0,0,0,0,0,0,0
109,'2025/06/16 11:16:53:116',1,0.252371,0.07593,-0.034318,-0.06038,-0.04007,0.133642,0.415749,0.454914,0.01914,-0.004264,-0.086684,-0.004917,0,0.026577,0.582911,0.824979,-0.002979,0.488871,0.921419,-0.030737,0,0,0,1,0,0,0,0,0,0,0,0,0,0,0
110,'2025/06/16 11:16:53:118',1,0.252371,0.07593,-0.034318,-0.06038,-0.04007,0.133642,0.415749,0.454914,0.01914,-0.004264,-0.086684,-0.004917,0,0.026577,0.582911,0.824979,-0.002979,0.488871,0.921419,-0.030737,0,0,0,1,0,0,0,0,0,0,0,0,0,0,0
111,'2025/06/16 11:16:53:122',1,0.252371,0.07593,-0.034318,-0.06038,-0.04007,0.133642,0.415749,0.454914,0.01914,-0.004264,-0.086684,-0.004917,0,0.026577,0.582911,0.824979,-0.002979,0.488871,0.921419,-0.030737,0,0,0,1,0,0,0,0,0,0,0,0,0,0,0
112,'2025/06/16 11:16:53:126',1,0.252371,0.07593,-0.034318,-0.06038,-0.04007,0.133642,0.415749,0.454914,0.01914,-0.004264,-0.086684,-0.004917,0,0.026577,0.582911,0.824979,-0.002979,0.488871,0.921419,-0.030737,0,0,0,1,0,0,0,0,0,0,0,0,0,0,0
113,'2025/06/16 11:16:53:128',1,0.252371,0.07593,-0.034318,-0.06038,-0.04007,0.133642,0.415749,0.454914,0.01914,-0.004264,-0.086684,-0.004917,0,0.026577,0.582911,0.824979,-0.002979,0.488871,0.921419,-0.030737,0,0,0,1,0,0,0,0,0,0,0,0,0,0,0
114,'2025/06/16 11:16:53:132',1,0.252371,0.07593,-0.034318,-0.06038,-0.04007,0.133642,0.415749,0.454914,0.01914,-0.004264,-0.086684,-0.004917,0,0.026577,0.582911,0.824979,-0.002979,0.488871,0.921419,-0.030737,0,0,0,1,0,0,0,0,0,0,0,0,0,0,0
115,'2025/06/16 11:16:53:136',1,0.252371,0.07593,-0.034318,-0.06038,-0.04007,0.133642,0.415749,0.454914,0.01914,-0.004264,-0.086684,-0.004917,0,0.026577,0.582911,0.824979,-0.002979,0.488871,0.921419,-0.030737,0,0,0,1,0,0,0,0,0,0,0,0,0,0,0
116,'2025/06/16 11:16:53:138',1,0.252371,0.07593,-0.034318,-0.06038,-0.04007,0.133642,0.415749,0.454914,0.01914,-0.004264,-0.086684,-0.004917,0,0.026577,0.582911,0.824979,-0.002979,0.488871,0.921419,-0.030737,0,0,0,1,0,0,0,0,0,0,0,0,0,0,0
117,'2025/06/16 11:16:53:142',1,0.252371,0.07593,-0.034318,-0.06038,-0.04007,0.133642,0.415749,0.454914,0.01914,-0.004264,-0.086684,-0.004917,0,0.026577,0.582911,0.824979,-0.002979,0.488871,0.921419,-0.030737,0,0,0,1,0,0,0,0,0,0,0,0,0,0,0
118,'2025/06/16 11:16:53:144',1,0.252371,0.07593,-0.034318,-0.06038,-0.04007,0.133642,0.415749,0.454914,0.01914,-0.004264,-0.086684,-0.004917,0,0.026577,0.582911,0.824979,-0.002979,0.488871,0.921419,-0.030737,0,0,0,1,0,0,0,0,0,0,0,0,0,0,0
119,'2025/06/16 11:16:53:148',1,0.252371,0.07593,-0.034318,-0.06038,-0.04007,0.133642,0.415749,0.454914,0.01914,-0.004264,-0.086684,-0.004917,0,0.026577,0.582911,0.824979,-0.002979,0.488871,0.921419,-0.030737,0,0,0,1,0,0,0,0,0,0,0,0,0,0,0
120,'2025/06/16 11:16:53:151',1,0.252371,0.07593,-0.034318,-0.06038,-0.04007,0.133642,0.415749,0.454914,0.01914,-0.004264,-0.086684,-0.004917,0,0.026577,0.582911,0.824979,-0.002979,0.488871,0.921419,-0.030737,0,0,0,1,0,0,0,0,0,0,0,0,0,0,0
121,'2025/06/16 11:16:53:154',1,0.252371,0.07593,-0.034318,-0.06038,-0.04007,0.133642,0.415749,0.454914,0.01914,-0.004264,-0.086684,-0.004917,0,0.026577,0.582911,0.824979,-0.002979,0.488871,0.921419,-0.030737,0,0,0,1,0,0,0,0,0,0,0,0,0,0,0
122,'2025/06/16 11:16:53:158',1,0.252371,0.07593,-0.034318,-0.06038,-0.04007,0.133642,0.415749,0.454914,0.01914,-0.004264,-0.086684,-0.004917,0,0.026577,0.582911,0.824979,-0.002979,0.488871,0.921419,-0.030737,0,0,0,1,0,0,0,0,0,0,0,0,0,0,0
123,'2025/06/16 11:16:53:160',1,0.252371,0.07593,-0.034318,-0.06038,-0.04007,0.133642,0.415749,0.454914,0.01914,-0.004264,-0.086684,-0.004917,0,0.026577,0.582911,0.824979,-0.002979,0.488871,0.921419,-0.030737,0,0,0,1,0,0,0,0,0,0,0,0,0,0,0
124,'2025/06/16 11:16:53:164',1,0.252371,0.07593,-0.034318,-0.06038,-0.04007,0.133642,0.415749,0.454914,0.01914,-0.004264,-0.086684,-0.004917,0,0.026577,0.582911,0.824979,-0.002979,0.488871,0.921419,-0.030737,0,0,0,1,0,0,0,0,0,0,0,0,0,0,0
125,'2025/06/16 11:16:53:168',1,0.252371,0.07593,-0.034318,-0.06038,-0.04007,0.133642,0.415749,0.454914,0.01914,-0.004264,-0.086684,-0.004917,0,0.026577,0.582911,0.824979,-0.002979,0.488871,0.921419,-0.030737,0,0,0,1,0,0,0,0,0,0,0,0,0,0,0
126,'2025/06/16 11:16:53:170',1,0.252371,0.07593,-0.034318,-0.06038,-0.04007,0.133642,0.415749,0.454914,0.01914,-0.004264,-0.086684,-0.004917,0,0.026577,0.582911,0.824979,-0.002979,0.488871,0.921419,-0.030737,0,0,0,1,0,0,0,0,0,0,0,0,0,0,0
127,'2025/06/16 11:16:53:174',1,0.252371,0.07593,-0.034318,-0.06038,-0.04007,0.133642,0.415749,0.454914,0.01914,-0.004264,-0.086684,-0.004917,0,0.026577,0.582911,0.824979,-0.002979,0.488871,0.921419,-0.030737,0,0,0,1,0,0,0,0,0,0,0,0,0,0,0
128,'2025/06/16 11:16:53:177',1,0.252371,0.07593,-0.034318,-0.06038,-0.04007,0.133642,0.415749,0.454914,0.01914,-0.004264,-0.086684,-0.004917,0,0.026577,0.582911,0.824979,-0.002979,0.488871,0.921419,-0.030737,0,0,0,1,0,0,0,0,0,0,0,0,0,0,0
129,'2025/06/16 11:16:53:181',1,0.252371,0.07593,-0.034318,-0.06038,-0.04007,0.133642,0.415749,0.454914,0.01914,-0.004264,-0.086684,-0.004917,0,0.026577,0.582911,0.824979,-0.002979,0.488871,0.921419,-0.030737,0,0,0,1,0,0,0,0,0,0,0,0,0,0,0
130,'2025/06/16 11:16:53:183',1,0.252371,0.07593,-0.034318,-0.06038,-0.04007,0.133642,0.415749,0.454914,0.01914,-0.004264,-0.086684,-0.004917,0,0.026577,0.582911,0.824979,-0.002979,0.488871,0.921419,-0.030737,0,0,0,1,0,0,0,0,0,0,0,0,0,0,0
131,'2025/06/16 11:16:53:187',1,0.252371,0.07593,-0.034318,-0.06038,-0.04007,0.133642,0.415749,0.454914,0.01914,-0.004264,-0.086684,-0.004917,0,0.026577,0.582911,0.824979,-0.002979,0.488871,0.921419,-0.030737,0,0,0,1,0,0,0,0,0,0,0,0,0,0,0
132,'2025/06/16 11:16:53:190',1,0.252371,0.07593,-0.034318,-0.06038,-0.04007,0.133642,0.415749,0.454914,0.01914,-0.004264,-0.086684,-0.004917,0,0.026577,0.582911,0.824979,-0.002979,0.488871,0.921419,-0.030737,0,0,0,1,0,0,0,0,0,0,0,0,0,0,0
133,'2025/06/16 11:16:53:194',1,0.252371,0.07593,-0.034318,-0.06038,-0.04007,0.133642,0.415749,0.454914,0.01914,-0.004264,-0.086684,-0.004917,0,0.026577,0.582911,0.824979,-0.002979,0.488871,0.921419,-0.030737,0,0,0,1,0,0,0,0,0,0,0,0,0,0,0
134,'2025/06/16 11:16:53:196',1,0.252371,0.07593,-0.034318,-0.06038,-0.04007,0.133642,0.415749,0.454914,0.01914,-0.004264,-0.086684,-0.004917,0,0.026577,0.582911,0.824979,-0.002979,0.488871,0.921419,-0.030737,0,0,0,1,0,0,0,0,0,0,0,0,0,0,0
135,'2025/06/16 11:16:53:200',1,0.252371,0.07593,-0.034318,-0.06038,-0.04007,0.133642,0.415749,0.454914,0.01914,-0.004264,-0.086684,-0.004917,0,0.026577,0.582911,0.824979,-0.002979,0.488871,0.921419,-0.030737,0,0,0,1,0,0,0,0,0,0,0,0,0,0,0
136,'2025/06/16 11:16:53:203',1,0.252371,0.07593,-0.034318,-0.06038,-0.04007,0.133642,0.415749,0.454914,0.01914,-0.004264,-0.086684,-0.004917,0,0.026577,0.582911,0.824979,-0.002979,0.488871,0.921419,-0.030737,0,0,0,1,0,0,0,0,0,0,0,0,0,0,0
137,'2025/06/16 11:16:53:206',1,0.252371,0.07593,-0.034318,-0.06038,-0.04007,0.133642,0.415749,0.454914,0.01914,-0.004264,-0.086684,-0.004917,0,0.026577,0.582911,0.824979,-0.002979,0.488871,0.921419,-0.030737,0,0,0,1,0,0,0,0,0,0,0,0,0,0,0
138,'2025/06/16 11:16:53:209',1,0.252371,0.07593,-0.034318,-0.06038,-0.04007,0.133642,0.415749,0.454914,0.01914,-0.004264,-0.086684,-0.004917,0,0.026577,0.582911,0.824979,-0.002979,0.488871,0.921419,-0.030737,0,0,0,1,0,0,0,0,0,0,0,0,0,0,0
139,'2025/06/16 11:16:53:212',1,0.252371,0.07593,-0.034318,-0.06038,-0.04007,0.133642,0.415749,0.454914,0.01914,-0.004264,-0.086684,-0.004917,0,0.026577,0.582911,0.824979,-0.002979,0.488871,0.921419,-0.030737,0,0,0,1,0,0,0,0,0,0,0,0,0,0,0
140,'2025/06/16 11:16:53:216',1,0.252371,0.07593,-0.034318,-0.06038,-0.04007,0.133642,0.415749,0.454914,0.01914,-0.004264,-0.086684,-0.004917,0,0.026577,0.582911,0.824979,-0.002979,0.488871,0.921419,-0.030737,0,0,0,1,0,0,0,0,0,0,0,0,0,0,0
141,'2025/06/16 11:16:53:218',1,0.252371,0.07593,-0.034318,-0.06038,-0.04007,0.133642,0.415749,0.454914,0.01914,-0.004264,-0.086684,-0.004917,0,0.026577,0.582911,0.824979,-0.002979,0.488871,0.921419,-0.030737,0,0,0,1,0,0,0,0,0,0,0,0,0,0,0
142,'2025/06/16 11:16:53:222',1,0.252371,0.07593,-0.034318,-0.06038,-0.04007,0.133642,0.415749,0.454914,0.01914,-0.004264,-0.086684,-0.004917,0,0.026577,0.582911,0.824979,-0.002979,0.488871,0.921419,-0.030737,0,0,0,1,0,0,0,0,0,0,0,0,0,0,0
143,'2025/06/16 11:16:53:224',1,0.252371,0.07593,-0.034318,-0.06038,-0.04007,0.133642,0.415749,0.454914,0.01914,-0.004264,-0.086684,-0.004917,0,0.026577,0.582911,0.824979,-0.002979,0.488871,0.921419,-0.030737,0,0,0,1,0,0,0,0,0,0,0,0,0,0,0
144,'2025/06/16 11:16:53:228',1,0.252371,0.07593,-0.034318,-0.06038,-0.04007,0.133642,0.415749,0.454914,0.01914,-0.004264,-0.086684,-0.004917,0,0.026577,0.582911,0.824979,-0.002979,0.488871,0.921419,-0.030737,0,0,0,1,0,0,0,0,0,0,0,0,0,0,0
145,'2025/06/16 11:16:53:232',1,0.252371,0.07593,-0.034318,-0.06038,-0.04007,0.133642,0.415749,0.454914,0.01914,-0.004264,-0.086684,-0.004917,0,0.026577,0.582911,0.824979,-0.002979,0.488871,0.921419,-0.030737,0,0,0,1,0,0,0,0,0,0,0,0,0,0,0
146,'2025/06/16 11:16:53:234',1,0.252371,0.07593,-0.034318,-0.06038,-0.04007,0.133642,0.415749,0.454914,0.01914,-0.004264,-0.086684,-0.004917,0,0.026577,0.582911,0.824979,-0.002979,0.488871,0.921419,-0.030737,0,0,0,1,0,0,0,0,0,0,0,0,0,0,0
147,'2025/06/16 11:16:53:238',1,0.252371,0.07593,-0.034318,-0.06038,-0.04007,0.133642,0.415749,0.454914,0.01914,-0.004264,-0.086684,-0.004917,0,0.026577,0.582911,0.824979,-0.002979,0.488871,0.921419,-0.030737,0,0,0,1,0,0,0,0,0,0,0,0,0,0,0
148,'2025/06/16 11:16:53:241',1,0.252371,0.07593,-0.034318,-0.06038,-0.04007,0.133642,0.415749,0.454914,0.01914,-0.004264,-0.086684,-0.004917,0,0.026577,0.582911,0.824979,-0.002979,0.488871,0.921419,-0.030737,0,0,0,1,0,0,0,0,0,0,0,0,0,0,0
149,'2025/06/16 11:16:53:245',1,0.252371,0.07593,-0.034318,-0.06038,-0.04007,0.133642,0.415749,0.454914,0.01914,-0.004264,-0.086684,-0.004917,0,0.026577,0.582911,0.824979,-0.002979,0.488871,0.921419,-0.030737,0,0,0,1,0,0,0,0,0,0,0,0,0,0,0
150,'2025/06/16 11:16:53:248',1,0.252371,0.07593,-0.034318,-0.06038,-0.04007,0.133642,0.415749,0.454914,0.01914,-0.004264,-0.086684,-0.004917,0,0.026577,0.582911,0.824979,-0.002979,0.488871,0.921419,-0.030737,0,0,0,1,0,0,0,0,0,0,0,0,0,0,0
151,'2025/06/16 11:16:53:251',1,0.252371,0.07593,-0.034318,-0.06038,-0.04007,0.133642,0.415749,0.454914,0.01914,-0.004264,-0.086684,-0.004917,0,0.026577,0.582911,0.824979,-0.002979,0.488871,0.921419,-0.030737,0,0,0,1,0,0,0,0,0,0,0,0,0,0,0
152,'2025/06/16 11:16:53:253',1,0.252371,0.07593,-0.034318,-0.06038,-0.04007,0.133642,0.415749,0.454914,0.01914,-0.004264,-0.086684,-0.004917,0,0.026577,0.582911,0.824979,-0.002979,0.488871,0.921419,-0.030737,0,0,0,1,0,0,0,0,0,0,0,0,0,0,0
153,'2025/06/16 11:16:53:257',1,0.252371,0.07593,-0.034318,-0.06038,-0.04007,0.133642,0.415749,0.454914,0.01914,-0.004264,-0.086684,-0.004917,0,0.026577,0.582911,0.824979,-0.002979,0.488871,0.921419,-0.030737,0,0,0,1,0,0,0,0,0,0,0,0,0,0,0
154,'2025/06/16 11:16:53:260',1,0.252371,0.07593,-0.034318,-0.06038,-0.04007,0.133642,0.415749,0.454914,0.01914,-0.004264,-0.086684,-0.004917,0,0.026577,0.582911,0.824979,-0.002979,0.488871,0.921419,-0.030737,0,0,0,1,0,0,0,0,0,0,0,0,0,0,0
155,'2025/06/16 11:16:53:264',1,0.252371,0.07593,-0.034318,-0.06038,-0.04007,0.133642,0.415749,0.454914,0.01914,-0.004264,-0.086684,-0.004917,0,0.026577,0.582911,0.824979,-0.002979,0.488871,0.921419,-0.030737,0,0,0,1,0,0,0,0,0,0,0,0,0,0,0
156,'2025/06/16 11:16:53:267',1,0.252371,0.07593,-0.034318,-0.06038,-0.04007,0.133642,0.415749,0.454914,0.01914,-0.004264,-0.086684,-0.004917,0,0.026577,0.582911,0.824979,-0.002979,0.488871,0.921419,-0.030737,0,0,0,1,0,0,0,0,0,0,0,0,0,0,0
157,'2025/06/16 11:16:53:270',1,0.252371,0.07593,-0.034318,-0.06038,-0.04007,0.133642,0.415749,0.454914,0.01914,-0.004264,-0.086684,-0.004917,0,0.026577,0.582911,0.824979,-0.002979,0.488871,0.921419,-0.030737,0,0,0,1,0,0,0,0,0,0,0,0,0,0,0
158,'2025/06/16 11:16:53:274',1,0.252371,0.07593,-0.034318,-0.06038,-0.04007,0.133642,0.415749,0.454914,0.01914,-0.004264,-0.086684,-0.004917,0,0.026577,0.582911,0.824979,-0.002979,0.488871,0.921419,-0.030737,0,0,0,1,0,0,0,0,0,0,0,0,0,0,0
159,'2025/06/16 11:16:53:277',1,0.252371,0.07593,-0.034318,-0.06038,-0.04007,0.133642,0.415749,0.454914,0.01914,-0.004264,-0.086684,-0.004917,0,0.026577,0.582911,0.824979,-0.002979,0.488871,0.921419,-0.030737,0,0,0,1,0,0,0,0,0,0,0,0,0,0,0
160,'2025/06/16 11:16:53:280',1,0.252371,0.07593,-0.034318,-0.06038,-0.04007,0.133642,0.415749,0.454914,0.01914,-0.004264,-0.086684,-0.004917,0,0.026577,0.582911,0.824979,-0.002979,0.488871,0.921419,-0.030737,0,0,0,1,0,0,0,0,0,0,0,0,0,0,0
161,'2025/06/16 11:16:53:283',1,0.252371,0.07593,-0.034318,-0.06038,-0.04007,0.133642,0.415749,0.454914,0.01914,-0.004264,-0.086684,-0.004917,0,0.026577,0.582911,0.824979,-0.002979,0.488871,0.921419,-0.030737,0,0,0,1,0,0,0,0,0,0,0,0,0,0,0
162,'2025/06/16 11:16:53:287',1,0.252371,0.07593,-0.034318,-0.06038,-0.04007,0.133642,0.415749,0.454914,0.01914,-0.004264,-0.086684,-0.004917,0,0.026577,0.582911,0.824979,-0.002979,0.488871,0.921419,-0.030737,0,0,0,1,0,0,0,0,0,0,0,0,0,0,0
163,'2025/06/16 11:16:53:292',1,0.252371,0.07593,-0.034318,-0.06038,-0.04007,0.133642,0.415749,0.454914,0.01914,-0.004264,-0.086684,-0.004917,0,0.026577,0.582911,0.824979,-0.002979,0.488871,0.921419,-0.030737,0,0,0,1,0,0,0,0,0,0,0,0,0,0,0
164,'2025/06/16 11:16:53:294',1,0.252371,0.07593,-0.034318,-0.06038,-0.04007,0.133642,0.415749,0.454914,0.01914,-0.004264,-0.086684,-0.004917,0,0.026577,0.582911,0.824979,-0.002979,0.488871,0.921419,-0.030737,0,0,0,1,0,0,0,0,0,0,0,0,0,0,0
165,'2025/06/16 11:16:53:298',1,0.252371,0.07593,-0.034318,-0.06038,-0.04007,0.133642,0.415749,0.454914,0.01914,-0.004264,-0.086684,-0.004917,0,0.026577,0.582911,0.824979,-0.002979,0.488871,0.921419,-0.030737,0,0,0,1,0,0,0,0,0,0,0,0,0,0,0
166,'2025/06/16 11:16:53:301',1,0.252371,0.07593,-0.034318,-0.06038,-0.04007,0.133642,0.415749,0.454914,0.01914,-0.004264,-0.086684,-0.004917,0,0.026577,0.582911,0.824979,-0.002979,0.488871,0.921419,-0.030737,0,0,0,1,0,0,0,0,0,0,0,0,0,0,0
167,'2025/06/16 11:16:53:305',1,0.252371,0.07593,-0.034318,-0.06038,-0.04007,0.133642,0.415749,0.454914,0.01914,-0.004264,-0.086684,-0.004917,0,0.026577,0.582911,0.824979,-0.002979,0.488871,0.921419,-0.030737,0,0,0,1,0,0,0,0,0,0,0,0,0,0,0
168,'2025/06/16 11:16:53:308',1,0.252371,0.07593,-0.034318,-0.06038,-0.04007,0.133642,0.415749,0.454914,0.01914,-0.004264,-0.086684,-0.004917,0,0.026577,0.582911,0.824979,-0.002979,0.488871,0.921419,-0.030737,0,0,0,1,0,0,0,0,0,0,0,0,0,0,0
169,'2025/06/16 11:16:53:312',1,0.252371,0.07593,-0.034318,-0.06038,-0.04007,0.133642,0.415749,0.454914,0.01914,-0.004264,-0.086684,-0.004917,0,0.026577,0.582911,0.824979,-0.002979,0.488871,0.921419,-0.030737,0,0,0,1,0,0,0,0,0,0,0,0,0,0,0
170,'2025/06/16 11:16:53:314',1,0.252371,0.07593,-0.034318,-0.06038,-0.04007,0.133642,0.415749,0.454914,0.01914,-0.004264,-0.086684,-0.004917,0,0.026577,0.582911,0.824979,-0.002979,0.488871,0.921419,-0.030737,0,0,0,1,0,0,0,0,0,0,0,0,0,0,0
171,'2025/06/16 11:16:53:317',1,0.252371,0.07593,-0.034318,-0.06038,-0.04007,0.133642,0.415749,0.454914,0.01914,-0.004264,-0.086684,-0.004917,0,0.026577,0.582911,0.824979,-0.002979,0.488871,0.921419,-0.030737,0,0,0,1,0,0,0,0,0,0,0,0,0,0,0
172,'2025/06/16 11:16:53:321',1,0.252371,0.07593,-0.034318,-0.06038,-0.04007,0.133642,0.415749,0.454914,0.01914,-0.004264,-0.086684,-0.004917,0,0.026577,0.582911,0.824979,-0.002979,0.488871,0.921419,-0.030737,0,0,0,1,0,0,0,0,0,0,0,0,0,0,0
173,'2025/06/16 11:16:53:323',1,0.252371,0.07593,-0.034318,-0.06038,-0.04007,0.133642,0.415749,0.454914,0.01914,-0.004264,-0.086684,-0.004917,0,0.026577,0.582911,0.824979,-0.002979,0.488871,0.921419,-0.030737,0,0,0,1,0,0,0,0,0,0,0,0,0,0,0
174,'2025/06/16 11:16:53:327',1,0.252371,0.07593,-0.034318,-0.06038,-0.04007,0.133642,0.415749,0.454914,0.01914,-0.004264,-0.086684,-0.004917,0,0.026577,0.582911,0.824979,-0.002979,0.488871,0.921419,-0.030737,0,0,0,1,0,0,0,0,0,0,0,0,0,0,0
175,'2025/06/16 11:16:53:331',1,0.252371,0.07593,-0.034318,-0.06038,-0.04007,0.133642,0.415749,0.454914,0.01914,-0.004264,-0.086684,-0.004917,0,0.026577,0.582911,0.824979,-0.002979,0.488871,0.921419,-0.030737,0,0,0,1,0,0,0,0,0,0,0,0,0,0,0
176,'2025/06/16 11:16:53:335',1,0.252371,0.07593,-0.034318,-0.06038,-0.04007,0.133642,0.415749,0.454914,0.01914,-0.004264,-0.086684,-0.004917,0,0.026577,0.582911,0.824979,-0.002979,0.488871,0.921419,-0.030737,0,0,0,1,0,0,0,0,0,0,0,0,0,0,0
177,'2025/06/16 11:16:53:338',1,0.252371,0.07593,-0.034318,-0.06038,-0.04007,0.133642,0.415749,0.454914,0.01914,-0.004264,-0.086684,-0.004917,0,0.026577,0.582911,0.824979,-0.002979,0.488871,0.921419,-0.030737,0,0,0,1,0,0,0,0,0,0,0,0,0,0,0
178,'2025/06/16 11:16:53:341',1,0.252371,0.07593,-0.034318,-0.06038,-0.04007,0.133642,0.415749,0.454914,0.01914,-0.004264,-0.086684,-0.004917,0,0.026577,0.582911,0.824979,-0.002979,0.488871,0.921419,-0.030737,0,0,0,1,0,0,0,0,0,0,0,0,0,0,0
179,'2025/06/16 11:16:53:344',1,0.252371,0.07593,-0.034318,-0.06038,-0.04007,0.133642,0.415749,0.454914,0.01914,-0.004264,-0.086684,-0.004917,0,0.026577,0.582911,0.824979,-0.002979,0.488871,0.921419,-0.030737,0,0,0,1,0,0,0,0,0,0,0,0,0,0,0
180,'2025/06/16 11:16:53:347',1,0.252371,0.07593,-0.034318,-0.06038,-0.04007,0.133642,0.415749,0.454914,0.01914,-0.004264,-0.086684,-0.004917,0,0.026577,0.582911,0.824979,-0.002979,0.488871,0.921419,-0.030737,0,0,0,1,0,0,0,0,0,0,0,0,0,0,0
181,'2025/06/16 11:16:53:351',1,0.252371,0.07593,-0.034318,-0.06038,-0.04007,0.133642,0.415749,0.454914,0.01914,-0.004264,-0.086684,-0.004917,0,0.026577,0.582911,0.824979,-0.002979,0.488871,0.921419,-0.030737,0,0,0,1,0,0,0,0,0,0,0,0,0,0,0
182,'2025/06/16 11:16:53:355',1,0.252371,0.07593,-0.034318,-0.06038,-0.04007,0.133642,0.415749,0.454914,0.01914,-0.004264,-0.086684,-0.004917,0,0.026577,0.582911,0.824979,-0.002979,0.488871,0.921419,-0.030737,0,0,0,1,0,0,0,0,0,0,0,0,0,0,0
183,'2025/06/16 11:16:53:358',1,0.252371,0.07593,-0.034318,-0.06038,-0.04007,0.133642,0.415749,0.454914,0.01914,-0.004264,-0.086684,-0.004917,0,0.026577,0.582911,0.824979,-0.002979,0.488871,0.921419,-0.030737,0,0,0,1,0,0,0,0,0,0,0,0,0,0,0
184,'2025/06/16 11:16:53:361',1,0.252371,0.07593,-0.034318,-0.06038,-0.04007,0.133642,0.415749,0.454914,0.01914,-0.004264,-0.086684,-0.004917,0,0.026577,0.582911,0.824979,-0.002979,0.488871,0.921419,-0.030737,0,0,0,1,0,0,0,0,0,0,0,0,0,0,0
185,'2025/06/16 11:18:17:857',2,0.328083,-0.047411,-0.08349,-0.080256,-0.30233,0.156331,0,-0.345704,0.746656,0.628744,-0.002993,0.805089,0.545063,0.014395,0.75878,0.612549,0.010772,-0.043319,0,0.29701,0,0,0,0,1,0,0,0,0,0,0,0,0,0,0
186,'2025/06/16 11:18:17:861',2,0.328083,-0.047411,-0.08349,-0.080256,-0.30233,0.156331,0,-0.345704,0.746656,0.628744,-0.002993,0.805089,0.545063,0.014395,0.75878,0.612549,0.010772,-0.043319,0,0.29701,0,0,0,0,1,0,0,0,0,0,0,0,0,0,0
187,'2025/06/16 11:18:17:864',2,0.328083,-0.047411,-0.08349,-0.080256,-0.30233,0.156331,0,-0.345704,0.746656,0.628744,-0.002993,0.805089,0.545063,0.014395,0.75878,0.612549,0.010772,-0.043319,0,0.29701,0,0,0,0,1,0,0,0,0,0,0,0,0,0,0
188,'2025/06/16 11:18:17:867',2,0.328083,-0.047411,-0.08349,-0.080256,-0.30233,0.156331,0,-0.345704,0.746656,0.628744,-0.002993,0.805089,0.545063,0.014395,0.75878,0.612549,0.010772,-0.043319,0,0.29701,0,0,0,0,1,0,0,0,0,0,0,0,0,0,0
189,'2025/06/16 11:18:17:871',2,0.328083,-0.047411,-0.08349,-0.080256,-0.30233,0.156331,0,-0.345704,0.746656,0.628744,-0.002993,0.805089,0.545063,0.014395,0.75878,0.612549,0.010772,-0.043319,0,0.29701,0,0,0,0,1,0,0,0,0,0,0,0,0,0,0
190,'2025/06/16 11:18:17:874',2,0.328083,-0.047411,-0.08349,-0.080256,-0.30233,0.156331,0,-0.345704,0.746656,0.628744,-0.002993,0.805089,0.545063,0.014395,0.75878,0.612549,0.010772,-0.043319,0,0.29701,0,0,0,0,1,0,0,0,0,0,0,0,0,0,0
191,'2025/06/16 11:18:17:878',2,0.328083,-0.047411,-0.08349,-0.080256,-0.30233,0.156331,0,-0.345704,0.746656,0.628744,-0.002993,0.805089,0.545063,0.014395,0.75878,0.612549,0.010772,-0.043319,0,0.29701,0,0,0,0,1,0,0,0,0,0,0,0,0,0,0
192,'2025/06/16 11:18:17:880',2,0.328083,-0.047411,-0.08349,-0.080256,-0.30233,0.156331,0,-0.345704,0.746656,0.628744,-0.002993,0.805089,0.545063,0.014395,0.75878,0.612549,0.010772,-0.043319,0,0.29701,0,0,0,0,1,0,0,0,0,0,0,0,0,0,0
193,'2025/06/16 11:18:17:884',2,0.328083,-0.047411,-0.08349,-0.080256,-0.30233,0.156331,0,-0.345704,0.746656,0.628744,-0.002993,0.805089,0.545063,0.014395,0.75878,0.612549,0.010772,-0.043319,0,0.29701,0,0,0,0,1,0,0,0,0,0,0,0,0,0,0
194,'2025/06/16 11:18:17:887',2,0.328083,-0.047411,-0.08349,-0.080256,-0.30233,0.156331,0,-0.345704,0.746656,0.628744,-0.002993,0.805089,0.545063,0.014395,0.75878,0.612549,0.010772,-0.043319,0,0.29701,0,0,0,0,1,0,0,0,0,0,0,0,0,0,0
195,'2025/06/16 11:18:17:890',2,0.328083,-0.047411,-0.08349,-0.080256,-0.30233,0.156331,0,-0.345704,0.746656,0.628744,-0.002993,0.805089,0.545063,0.014395,0.75878,0.612549,0.010772,-0.043319,0,0.29701,0,0,0,0,1,0,0,0,0,0,0,0,0,0,0
196,'2025/06/16 11:18:17:894',2,0.328083,-0.047411,-0.08349,-0.080256,-0.30233,0.156331,0,-0.345704,0.746656,0.628744,-0.002993,0.805089,0.545063,0.014395,0.75878,0.612549,0.010772,-0.043319,0,0.29701,0,0,0,0,1,0,0,0,0,0,0,0,0,0,0
197,'2025/06/16 11:18:17:897',2,0.328083,-0.047411,-0.08349,-0.080256,-0.30233,0.156331,0,-0.345704,0.746656,0.628744,-0.002993,0.805089,0.545063,0.014395,0.75878,0.612549,0.010772,-0.043319,0,0.29701,0,0,0,0,1,0,0,0,0,0,0,0,0,0,0
198,'2025/06/16 11:18:17:900',2,0.328083,-0.047411,-0.08349,-0.080256,-0.30233,0.156331,0,-0.345704,0.746656,0.628744,-0.002993,0.805089,0.545063,0.014395,0.75878,0.612549,0.010772,-0.043319,0,0.29701,0,0,0,0,1,0,0,0,0,0,0,0,0,0,0
199,'2025/06/16 11:18:17:904',2,0.328083,-0.047411,-0.08349,-0.080256,-0.30233,0.156331,0,-0.345704,0.746656,0.628744,-0.002993,0.805089,0.545063,0.014395,0.75878,0.612549,0.010772,-0.043319,0,0.29701,0,0,0,0,1,0,0,0,0,0,0,0,0,0,0
200,'2025/06/16 11:18:17:907',2,0.328083,-0.047411,-0.08349,-0.080256,-0.30233,0.156331,0,-0.345704,0.746656,0.628744,-0.002993,0.805089,0.545063,0.014395,0.75878,0.612549,0.010772,-0.043319,0,0.29701,0,0,0,0,1,0,0,0,0,0,0,0,0,0,0
201,'2025/06/16 11:18:17:911',2,0.328083,-0.047411,-0.08349,-0.080256,-0.30233,0.156331,0,-0.345704,0.746656,0.628744,-0.002993,0.805089,0.545063,0.014395,0.75878,0.612549,0.010772,-0.043319,0,0.29701,0,0,0,0,1,0,0,0,0,0,0,0,0,0,0
202,'2025/06/16 11:18:17:913',2,0.328083,-0.047411,-0.08349,-0.080256,-0.30233,0.156331,0,-0.345704,0.746656,0.628744,-0.002993,0.805089,0.545063,0.014395,0.75878,0.612549,0.010772,-0.043319,0,0.29701,0,0,0,0,1,0,0,0,0,0,0,0,0,0,0
203,'2025/06/16 11:18:17:917',2,0.328083,-0.047411,-0.08349,-0.080256,-0.30233,0.156331,0,-0.345704,0.746656,0.628744,-0.002993,0.805089,0.545063,0.014395,0.75878,0.612549,0.010772,-0.043319,0,0.29701,0,0,0,0,1,0,0,0,0,0,0,0,0,0,0
204,'2025/06/16 11:18:17:921',2,0.328083,-0.047411,-0.08349,-0.080256,-0.30233,0.156331,0,-0.345704,0.746656,0.628744,-0.002993,0.805089,0.545063,0.014395,0.75878,0.612549,0.010772,-0.043319,0,0.29701,0,0,0,0,1,0,0,0,0,0,0,0,0,0,0
205,'2025/06/16 11:18:17:924',2,0.328083,-0.047411,-0.08349,-0.080256,-0.30233,0.156331,0,-0.345704,0.746656,0.628744,-0.002993,0.805089,0.545063,0.014395,0.75878,0.612549,0.010772,-0.043319,0,0.29701,0,0,0,0,1,0,0,0,0,0,0,0,0,0,0
206,'2025/06/16 11:18:17:927',2,0.328083,-0.047411,-0.08349,-0.080256,-0.30233,0.156331,0,-0.345704,0.746656,0.628744,-0.002993,0.805089,0.545063,0.014395,0.75878,0.612549,0.010772,-0.043319,0,0.29701,0,0,0,0,1,0,0,0,0,0,0,0,0,0,0
207,'2025/06/16 11:18:17:930',2,0.328083,-0.047411,-0.08349,-0.080256,-0.30233,0.156331,0,-0.345704,0.746656,0.628744,-0.002993,0.805089,0.545063,0.014395,0.75878,0.612549,0.010772,-0.043319,0,0.29701,0,0,0,0,1,0,0,0,0,0,0,0,0,0,0
208,'2025/06/16 11:18:17:933',2,0.328083,-0.047411,-0.08349,-0.080256,-0.30233,0.156331,0,-0.345704,0.746656,0.628744,-0.002993,0.805089,0.545063,0.014395,0.75878,0.612549,0.010772,-0.043319,0,0.29701,0,0,0,0,1,0,0,0,0,0,0,0,0,0,0
209,'2025/06/16 11:18:17:936',2,0.328083,-0.047411,-0.08349,-0.080256,-0.30233,0.156331,0,-0.345704,0.746656,0.628744,-0.002993,0.805089,0.545063,0.014395,0.75878,0.612549,0.010772,-0.043319,0,0.29701,0,0,0,0,1,0,0,0,0,0,0,0,0,0,0
210,'2025/06/16 11:18:17:938',2,0.328083,-0.047411,-0.08349,-0.080256,-0.30233,0.156331,0,-0.345704,0.746656,0.628744,-0.002993,0.805089,0.545063,0.014395,0.75878,0.612549,0.010772,-0.043319,0,0.29701,0,0,0,0,1,0,0,0,0,0,0,0,0,0,0
211,'2025/06/16 11:18:17:942',2,0.328083,-0.047411,-0.08349,-0.080256,-0.30233,0.156331,0,-0.345704,0.746656,0.628744,-0.002993,0.805089,0.545063,0.014395,0.75878,0.612549,0.010772,-0.043319,0,0.29701,0,0,0,0,1,0,0,0,0,0,0,0,0,0,0
212,'2025/06/16 11:18:17:946',2,0.328083,-0.047411,-0.08349,-0.080256,-0.30233,0.156331,0,-0.345704,0.746656,0.628744,-0.002993,0.805089,0.545063,0.014395,0.75878,0.612549,0.010772,-0.043319,0,0.29701,0,0,0,0,1,0,0,0,0,0,0,0,0,0,0
213,'2025/06/16 11:18:17:949',2,0.328083,-0.047411,-0.08349,-0.080256,-0.30233,0.156331,0,-0.345704,0.746656,0.628744,-0.002993,0.805089,0.545063,0.014395,0.75878,0.612549,0.010772,-0.043319,0,0.29701,0,0,0,0,1,0,0,0,0,0,0,0,0,0,0
214,'2025/06/16 11:18:17:952',2,0.328083,-0.047411,-0.08349,-0.080256,-0.30233,0.156331,0,-0.345704,0.746656,0.628744,-0.002993,0.805089,0.545063,0.014395,0.75878,0.612549,0.010772,-0.043319,0,0.29701,0,0,0,0,1,0,0,0,0,0,0,0,0,0,0
215,'2025/06/16 11:18:17:954',2,0.328083,-0.047411,-0.08349,-0.080256,-0.30233,0.156331,0,-0.345704,0.746656,0.628744,-0.002993,0.805089,0.545063,0.014395,0.75878,0.612549,0.010772,-0.043319,0,0.29701,0,0,0,0,1,0,0,0,0,0,0,0,0,0,0
216,'2025/06/16 11:18:17:958',2,0.328083,-0.047411,-0.08349,-0.080256,-0.30233,0.156331,0,-0.345704,0.746656,0.628744,-0.002993,0.805089,0.545063,0.014395,0.75878,0.612549,0.010772,-0.043319,0,0.29701,0,0,0,0,1,0,0,0,0,0,0,0,0,0,0
217,'2025/06/16 11:18:17:961',2,0.328083,-0.047411,-0.08349,-0.080256,-0.30233,0.156331,0,-0.345704,0.746656,0.628744,-0.002993,0.805089,0.545063,0.014395,0.75878,0.612549,0.010772,-0.043319,0,0.29701,0,0,0,0,1,0,0,0,0,0,0,0,0,0,0
218,'2025/06/16 11:18:17:965',2,0.328083,-0.047411,-0.08349,-0.080256,-0.30233,0.156331,0,-0.345704,0.746656,0.628744,-0.002993,0.805089,0.545063,0.014395,0.75878,0.612549,0.010772,-0.043319,0,0.29701,0,0,0,0,1,0,0,0,0,0,0,0,0,0,0
219,'2025/06/16 11:18:17:968',2,0.328083,-0.047411,-0.08349,-0.080256,-0.30233,0.156331,0,-0.345704,0.746656,0.628744,-0.002993,0.805089,0.545063,0.014395,0.75878,0.612549,0.010772,-0.043319,0,0.29701,0,0,0,0,1,0,0,0,0,0,0,0,0,0,0
220,'2025/06/16 11:18:17:970',2,0.328083,-0.047411,-0.08349,-0.080256,-0.30233,0.156331,0,-0.345704,0.746656,0.628744,-0.002993,0.805089,0.545063,0.014395,0.75878,0.612549,0.010772,-0.043319,0,0.29701,0,0,0,0,1,0,0,0,0,0,0,0,0,0,0
221,'2025/06/16 11:18:17:974',2,0.328083,-0.047411,-0.08349,-0.080256,-0.30233,0.156331,0,-0.345704,0.746656,0.628744,-0.002993,0.805089,0.545063,0.014395,0.75878,0.612549,0.010772,-0.043319,0,0.29701,0,0,0,0,1,0,0,0,0,0,0,0,0,0,0
222,'2025/06/16 11:18:17:977',2,0.328083,-0.047411,-0.08349,-0.080256,-0.30233,0.156331,0,-0.345704,0.746656,0.628744,-0.002993,0.805089,0.545063,0.014395,0.75878,0.612549,0.010772,-0.043319,0,0.29701,0,0,0,0,1,0,0,0,0,0,0,0,0,0,0
223,'2025/06/16 11:18:17:980',2,0.328083,-0.047411,-0.08349,-0.080256,-0.30233,0.156331,0,-0.345704,0.746656,0.628744,-0.002993,0.805089,0.545063,0.014395,0.75878,0.612549,0.010772,-0.043319,0,0.29701,0,0,0,0,1,0,0,0,0,0,0,0,0,0,0
224,'2025/06/16 11:18:17:983',2,0.328083,-0.047411,-0.08349,-0.080256,-0.30233,0.156331,0,-0.345704,0.746656,0.628744,-0.002993,0.805089,0.545063,0.014395,0.75878,0.612549,0.010772,-0.043319,0,0.29701,0,0,0,0,1,0,0,0,0,0,0,0,0,0,0
225,'2025/06/16 11:18:17:987',2,0.328083,-0.047411,-0.08349,-0.080256,-0.30233,0.156331,0,-0.345704,0.746656,0.628744,-0.002993,0.805089,0.545063,0.014395,0.75878,0.612549,0.010772,-0.043319,0,0.29701,0,0,0,0,1,0,0,0,0,0,0,0,0,0,0
226,'2025/06/16 11:18:17:991',2,0.328083,-0.047411,-0.08349,-0.080256,-0.30233,0.156331,0,-0.345704,0.746656,0.628744,-0.002993,0.805089,0.545063,0.014395,0.75878,0.612549,0.010772,-0.043319,0,0.29701,0,0,0,0,1,0,0,0,0,0,0,0,0,0,0
227,'2025/06/16 11:18:17:993',2,0.328083,-0.047411,-0.08349,-0.080256,-0.30233,0.156331,0,-0.345704,0.746656,0.628744,-0.002993,0.805089,0.545063,0.014395,0.75878,0.612549,0.010772,-0.043319,0,0.29701,0,0,0,0,1,0,0,0,0,0,0,0,0,0,0
228,'2025/06/16 11:18:17:997',2,0.328083,-0.047411,-0.08349,-0.080256,-0.30233,0.156331,0,-0.345704,0.746656,0.628744,-0.002993,0.805089,0.545063,0.014395,0.75878,0.612549,0.010772,-0.043319,0,0.29701,0,0,0,0,1,0,0,0,0,0,0,0,0,0,0
229,'2025/06/16 11:18:18:000',2,0.328083,-0.047411,-0.08349,-0.080256,-0.30233,0.156331,0,-0.345704,0.746656,0.628744,-0.002993,0.805089,0.545063,0.014395,0.75878,0.612549,0.010772,-0.043319,0,0.29701,0,0,0,0,1,0,0,0,0,0,0,0,0,0,0
230,'2025/06/16 11:18:18:002',2,0.328083,-0.047411,-0.08349,-0.080256,-0.30233,0.156331,0,-0.345704,0.746656,0.628744,-0.002993,0.805089,0.545063,0.014395,0.75878,0.612549,0.010772,-0.043319,0,0.29701,0,0,0,0,1,0,0,0,0,0,0,0,0,0,0
231,'2025/06/16 11:18:18:006',2,0.328083,-0.047411,-0.08349,-0.080256,-0.30233,0.156331,0,-0.345704,0.746656,0.628744,-0.002993,0.805089,0.545063,0.014395,0.75878,0.612549,0.010772,-0.043319,0,0.29701,0,0,0,0,1,0,0,0,0,0,0,0,0,0,0
232,'2025/06/16 11:18:18:009',2,0.328083,-0.047411,-0.08349,-0.080256,-0.30233,0.156331,0,-0.345704,0.746656,0.628744,-0.002993,0.805089,0.545063,0.014395,0.75878,0.612549,0.010772,-0.043319,0,0.29701,0,0,0,0,1,0,0,0,0,0,0,0,0,0,0
233,'2025/06/16 11:18:18:012',2,0.328083,-0.047411,-0.08349,-0.080256,-0.30233,0.156331,0,-0.345704,0.746656,0.628744,-0.002993,0.805089,0.545063,0.014395,0.75878,0.612549,0.010772,-0.043319,0,0.29701,0,0,0,0,1,0,0,0,0,0,0,0,0,0,0
234,'2025/06/16 11:18:18:015',2,0.328083,-0.047411,-0.08349,-0.080256,-0.30233,0.156331,0,-0.345704,0.746656,0.628744,-0.002993,0.805089,0.545063,0.014395,0.75878,0.612549,0.010772,-0.043319,0,0.29701,0,0,0,0,1,0,0,0,0,0,0,0,0,0,0
235,'2025/06/16 11:18:18:018',2,0.328083,-0.047411,-0.08349,-0.080256,-0.30233,0.156331,0,-0.345704,0.746656,0.628744,-0.002993,0.805089,0.545063,0.014395,0.75878,0.612549,0.010772,-0.043319,0,0.29701,0,0,0,0,1,0,0,0,0,0,0,0,0,0,0
236,'2025/06/16 11:18:18:021',2,0.328083,-0.047411,-0.08349,-0.080256,-0.30233,0.156331,0,-0.345704,0.746656,0.628744,-0.002993,0.805089,0.545063,0.014395,0.75878,0.612549,0.010772,-0.043319,0,0.29701,0,0,0,0,1,0,0,0,0,0,0,0,0,0,0
237,'2025/06/16 11:18:18:025',2,0.328083,-0.047411,-0.08349,-0.080256,-0.30233,0.156331,0,-0.345704,0.746656,0.628744,-0.002993,0.805089,0.545063,0.014395,0.75878,0.612549,0.010772,-0.043319,0,0.29701,0,0,0,0,1,0,0,0,0,0,0,0,0,0,0
238,'2025/06/16 11:18:18:028',2,0.328083,-0.047411,-0.08349,-0.080256,-0.30233,0.156331,0,-0.345704,0.746656,0.628744,-0.002993,0.805089,0.545063,0.014395,0.75878,0.612549,0.010772,-0.043319,0,0.29701,0,0,0,0,1,0,0,0,0,0,0,0,0,0,0
239,'2025/06/16 11:18:18:031',2,0.328083,-0.047411,-0.08349,-0.080256,-0.30233,0.156331,0,-0.345704,0.746656,0.628744,-0.002993,0.805089,0.545063,0.014395,0.75878,0.612549,0.010772,-0.043319,0,0.29701,0,0,0,0,1,0,0,0,0,0,0,0,0,0,0
240,'2025/06/16 11:18:18:033',2,0.328083,-0.047411,-0.08349,-0.080256,-0.30233,0.156331,0,-0.345704,0.746656,0.628744,-0.002993,0.805089,0.545063,0.014395,0.75878,0.612549,0.010772,-0.043319,0,0.29701,0,0,0,0,1,0,0,0,0,0,0,0,0,0,0
241,'2025/06/16 11:18:18:037',2,0.328083,-0.047411,-0.08349,-0.080256,-0.30233,0.156331,0,-0.345704,0.746656,0.628744,-0.002993,0.805089,0.545063,0.014395,0.75878,0.612549,0.010772,-0.043319,0,0.29701,0,0,0,0,1,0,0,0,0,0,0,0,0,0,0
242,'2025/06/16 11:18:18:040',2,0.328083,-0.047411,-0.08349,-0.080256,-0.30233,0.156331,0,-0.345704,0.746656,0.628744,-0.002993,0.805089,0.545063,0.014395,0.75878,0.612549,0.010772,-0.043319,0,0.29701,0,0,0,0,1,0,0,0,0,0,0,0,0,0,0
243,'2025/06/16 11:18:18:043',2,0.328083,-0.047411,-0.08349,-0.080256,-0.30233,0.156331,0,-0.345704,0.746656,0.628744,-0.002993,0.805089,0.545063,0.014395,0.75878,0.612549,0.010772,-0.043319,0,0.29701,0,0,0,0,1,0,0,0,0,0,0,0,0,0,0
244,'2025/06/16 11:18:18:047',2,0.328083,-0.047411,-0.08349,-0.080256,-0.30233,0.156331,0,-0.345704,0.746656,0.628744,-0.002993,0.805089,0.545063,0.014395,0.75878,0.612549,0.010772,-0.043319,0,0.29701,0,0,0,0,1,0,0,0,0,0,0,0,0,0,0
245,'2025/06/16 11:18:18:050',2,0.328083,-0.047411,-0.08349,-0.080256,-0.30233,0.156331,0,-0.345704,0.746656,0.628744,-0.002993,0.805089,0.545063,0.014395,0.75878,0.612549,0.010772,-0.043319,0,0.29701,0,0,0,0,1,0,0,0,0,0,0,0,0,0,0
246,'2025/06/16 11:18:18:053',2,0.328083,-0.047411,-0.08349,-0.080256,-0.30233,0.156331,0,-0.345704,0.746656,0.628744,-0.002993,0.805089,0.545063,0.014395,0.75878,0.612549,0.010772,-0.043319,0,0.29701,0,0,0,0,1,0,0,0,0,0,0,0,0,0,0
247,'2025/06/16 11:18:18:056',2,0.328083,-0.047411,-0.08349,-0.080256,-0.30233,0.156331,0,-0.345704,0.746656,0.628744,-0.002993,0.805089,0.545063,0.014395,0.75878,0.612549,0.010772,-0.043319,0,0.29701,0,0,0,0,1,0,0,0,0,0,0,0,0,0,0
248,'2025/06/16 11:18:18:059',2,0.328083,-0.047411,-0.08349,-0.080256,-0.30233,0.156331,0,-0.345704,0.746656,0.628744,-0.002993,0.805089,0.545063,0.014395,0.75878,0.612549,0.010772,-0.043319,0,0.29701,0,0,0,0,1,0,0,0,0,0,0,0,0,0,0
249,'2025/06/16 11:18:18:061',2,0.328083,-0.047411,-0.08349,-0.080256,-0.30233,0.156331,0,-0.345704,0.746656,0.628744,-0.002993,0.805089,0.545063,0.014395,0.75878,0.612549,0.010772,-0.043319,0,0.29701,0,0,0,0,1,0,0,0,0,0,0,0,0,0,0
250,'2025/06/16 11:18:18:066',2,0.328083,-0.047411,-0.08349,-0.080256,-0.30233,0.156331,0,-0.345704,0.746656,0.628744,-0.002993,0.805089,0.545063,0.014395,0.75878,0.612549,0.010772,-0.043319,0,0.29701,0,0,0,0,1,0,0,0,0,0,0,0,0,0,0
251,'2025/06/16 11:18:18:069',2,0.328083,-0.047411,-0.08349,-0.080256,-0.30233,0.156331,0,-0.345704,0.746656,0.628744,-0.002993,0.805089,0.545063,0.014395,0.75878,0.612549,0.010772,-0.043319,0,0.29701,0,0,0,0,1,0,0,0,0,0,0,0,0,0,0
252,'2025/06/16 11:18:18:073',2,0.328083,-0.047411,-0.08349,-0.080256,-0.30233,0.156331,0,-0.345704,0.746656,0.628744,-0.002993,0.805089,0.545063,0.014395,0.75878,0.612549,0.010772,-0.043319,0,0.29701,0,0,0,0,1,0,0,0,0,0,0,0,0,0,0
253,'2025/06/16 11:18:18:075',2,0.328083,-0.047411,-0.08349,-0.080256,-0.30233,0.156331,0,-0.345704,0.746656,0.628744,-0.002993,0.805089,0.545063,0.014395,0.75878,0.612549,0.010772,-0.043319,0,0.29701,0,0,0,0,1,0,0,0,0,0,0,0,0,0,0
254,'2025/06/16 11:18:18:078',2,0.328083,-0.047411,-0.08349,-0.080256,-0.30233,0.156331,0,-0.345704,0.746656,0.628744,-0.002993,0.805089,0.545063,0.014395,0.75878,0.612549,0.010772,-0.043319,0,0.29701,0,0,0,0,1,0,0,0,0,0,0,0,0,0,0
255,'2025/06/16 11:18:18:082',2,0.328083,-0.047411,-0.08349,-0.080256,-0.30233,0.156331,0,-0.345704,0.746656,0.628744,-0.002993,0.805089,0.545063,0.014395,0.75878,0.612549,0.010772,-0.043319,0,0.29701,0,0,0,0,1,0,0,0,0,0,0,0,0,0,0
256,'2025/06/16 11:18:18:085',2,0.328083,-0.047411,-0.08349,-0.080256,-0.30233,0.156331,0,-0.345704,0.746656,0.628744,-0.002993,0.805089,0.545063,0.014395,0.75878,0.612549,0.010772,-0.043319,0,0.29701,0,0,0,0,1,0,0,0,0,0,0,0,0,0,0
257,'2025/06/16 11:18:18:088',2,0.328083,-0.047411,-0.08349,-0.080256,-0.30233,0.156331,0,-0.345704,0.746656,0.628744,-0.002993,0.805089,0.545063,0.014395,0.75878,0.612549,0.010772,-0.043319,0,0.29701,0,0,0,0,1,0,0,0,0,0,0,0,0,0,0
258,'2025/06/16 11:18:18:092',2,0.328083,-0.047411,-0.08349,-0.080256,-0.30233,0.156331,0,-0.345704,0.746656,0.628744,-0.002993,0.805089,0.545063,0.014395,0.75878,0.612549,0.010772,-0.043319,0,0.29701,0,0,0,0,1,0,0,0,0,0,0,0,0,0,0
259,'2025/06/16 11:18:18:095',2,0.328083,-0.047411,-0.08349,-0.080256,-0.30233,0.156331,0,-0.345704,0.746656,0.628744,-0.002993,0.805089,0.545063,0.014395,0.75878,0.612549,0.010772,-0.043319,0,0.29701,0,0,0,0,1,0,0,0,0,0,0,0,0,0,0
260,'2025/06/16 11:18:18:098',2,0.328083,-0.047411,-0.08349,-0.080256,-0.30233,0.156331,0,-0.345704,0.746656,0.628744,-0.002993,0.805089,0.545063,0.014395,0.75878,0.612549,0.010772,-0.043319,0,0.29701,0,0,0,0,1,0,0,0,0,0,0,0,0,0,0
261,'2025/06/16 11:18:18:102',2,0.328083,-0.047411,-0.08349,-0.080256,-0.30233,0.156331,0,-0.345704,0.746656,0.628744,-0.002993,0.805089,0.545063,0.014395,0.75878,0.612549,0.010772,-0.043319,0,0.29701,0,0,0,0,1,0,0,0,0,0,0,0,0,0,0
262,'2025/06/16 11:18:18:104',2,0.328083,-0.047411,-0.08349,-0.080256,-0.30233,0.156331,0,-0.345704,0.746656,0.628744,-0.002993,0.805089,0.545063,0.014395,0.75878,0.612549,0.010772,-0.043319,0,0.29701,0,0,0,0,1,0,0,0,0,0,0,0,0,0,0
263,'2025/06/16 11:18:18:108',2,0.328083,-0.047411,-0.08349,-0.080256,-0.30233,0.156331,0,-0.345704,0.746656,0.628744,-0.002993,0.805089,0.545063,0.014395,0.75878,0.612549,0.010772,-0.043319,0,0.29701,0,0,0,0,1,0,0,0,0,0,0,0,0,0,0
264,'2025/06/16 11:18:18:111',2,0.328083,-0.047411,-0.08349,-0.080256,-0.30233,0.156331,0,-0.345704,0.746656,0.628744,-0.002993,0.805089,0.545063,0.014395,0.75878,0.612549,0.010772,-0.043319,0,0.29701,0,0,0,0,1,0,0,0,0,0,0,0,0,0,0
265,'2025/06/16 11:18:18:113',2,0.328083,-0.047411,-0.08349,-0.080256,-0.30233,0.156331,0,-0.345704,0.746656,0.628744,-0.002993,0.805089,0.545063,0.014395,0.75878,0.612549,0.010772,-0.043319,0,0.29701,0,0,0,0,1,0,0,0,0,0,0,0,0,0,0
266,'2025/06/16 11:18:18:117',2,0.328083,-0.047411,-0.08349,-0.080256,-0.30233,0.156331,0,-0.345704,0.746656,0.628744,-0.002993,0.805089,0.545063,0.014395,0.75878,0.612549,0.010772,-0.043319,0,0.29701,0,0,0,0,1,0,0,0,0,0,0,0,0,0,0
267,'2025/06/16 11:18:18:120',2,0.328083,-0.047411,-0.08349,-0.080256,-0.30233,0.156331,0,-0.345704,0.746656,0.628744,-0.002993,0.805089,0.545063,0.014395,0.75878,0.612549,0.010772,-0.043319,0,0.29701,0,0,0,0,1,0,0,0,0,0,0,0,0,0,0
268,'2025/06/16 11:18:18:123',2,0.328083,-0.047411,-0.08349,-0.080256,-0.30233,0.156331,0,-0.345704,0.746656,0.628744,-0.002993,0.805089,0.545063,0.014395,0.75878,0.612549,0.010772,-0.043319,0,0.29701,0,0,0,0,1,0,0,0,0,0,0,0,0,0,0
269,'2025/06/16 11:18:18:127',2,0.328083,-0.047411,-0.08349,-0.080256,-0.30233,0.156331,0,-0.345704,0.746656,0.628744,-0.002993,0.805089,0.545063,0.014395,0.75878,0.612549,0.010772,-0.043319,0,0.29701,0,0,0,0,1,0,0,0,0,0,0,0,0,0,0
270,'2025/06/16 11:18:18:130',2,0.328083,-0.047411,-0.08349,-0.080256,-0.30233,0.156331,0,-0.345704,0.746656,0.628744,-0.002993,0.805089,0.545063,0.014395,0.75878,0.612549,0.010772,-0.043319,0,0.29701,0,0,0,0,1,0,0,0,0,0,0,0,0,0,0
271,'2025/06/16 11:18:18:133',2,0.328083,-0.047411,-0.08349,-0.080256,-0.30233,0.156331,0,-0.345704,0.746656,0.628744,-0.002993,0.805089,0.545063,0.014395,0.75878,0.612549,0.010772,-0.043319,0,0.29701,0,0,0,0,1,0,0,0,0,0,0,0,0,0,0
272,'2025/06/16 11:18:18:136',2,0.328083,-0.047411,-0.08349,-0.080256,-0.30233,0.156331,0,-0.345704,0.746656,0.628744,-0.002993,0.805089,0.545063,0.014395,0.75878,0.612549,0.010772,-0.043319,0,0.29701,0,0,0,0,1,0,0,0,0,0,0,0,0,0,0
273,'2025/06/16 11:18:18:139',2,0.328083,-0.047411,-0.08349,-0.080256,-0.30233,0.156331,0,-0.345704,0.746656,0.628744,-0.002993,0.805089,0.545063,0.014395,0.75878,0.612549,0.010772,-0.043319,0,0.29701,0,0,0,0,1,0,0,0,0,0,0,0,0,0,0
274,'2025/06/16 11:18:18:142',2,0.328083,-0.047411,-0.08349,-0.080256,-0.30233,0.156331,0,-0.345704,0.746656,0.628744,-0.002993,0.805089,0.545063,0.014395,0.75878,0.612549,0.010772,-0.043319,0,0.29701,0,0,0,0,1,0,0,0,0,0,0,0,0,0,0
275,'2025/06/16 11:18:18:146',2,0.328083,-0.047411,-0.08349,-0.080256,-0.30233,0.156331,0,-0.345704,0.746656,0.628744,-0.002993,0.805089,0.545063,0.014395,0.75878,0.612549,0.010772,-0.043319,0,0.29701,0,0,0,0,1,0,0,0,0,0,0,0,0,0,0
276,'2025/06/16 11:18:18:149',2,0.328083,-0.047411,-0.08349,-0.080256,-0.30233,0.156331,0,-0.345704,0.746656,0.628744,-0.002993,0.805089,0.545063,0.014395,0.75878,0.612549,0.010772,-0.043319,0,0.29701,0,0,0,0,1,0,0,0,0,0,0,0,0,0,0
277,'2025/06/16 11:18:18:151',2,0.328083,-0.047411,-0.08349,-0.080256,-0.30233,0.156331,0,-0.345704,0.746656,0.628744,-0.002993,0.805089,0.545063,0.014395,0.75878,0.612549,0.010772,-0.043319,0,0.29701,0,0,0,0,1,0,0,0,0,0,0,0,0,0,0
278,'2025/06/16 11:18:18:156',2,0.328083,-0.047411,-0.08349,-0.080256,-0.30233,0.156331,0,-0.345704,0.746656,0.628744,-0.002993,0.805089,0.545063,0.014395,0.75878,0.612549,0.010772,-0.043319,0,0.29701,0,0,0,0,1,0,0,0,0,0,0,0,0,0,0
279,'2025/06/16 11:18:18:158',2,0.328083,-0.047411,-0.08349,-0.080256,-0.30233,0.156331,0,-0.345704,0.746656,0.628744,-0.002993,0.805089,0.545063,0.014395,0.75878,0.612549,0.010772,-0.043319,0,0.29701,0,0,0,0,1,0,0,0,0,0,0,0,0,0,0
280,'2025/06/16 11:18:18:162',2,0.328083,-0.047411,-0.08349,-0.080256,-0.30233,0.156331,0,-0.345704,0.746656,0.628744,-0.002993,0.805089,0.545063,0.014395,0.75878,0.612549,0.010772,-0.043319,0,0.29701,0,0,0,0,1,0,0,0,0,0,0,0,0,0,0
281,'2025/06/16 11:18:18:164',2,0.328083,-0.047411,-0.08349,-0.080256,-0.30233,0.156331,0,-0.345704,0.746656,0.628744,-0.002993,0.805089,0.545063,0.014395,0.75878,0.612549,0.010772,-0.043319,0,0.29701,0,0,0,0,1,0,0,0,0,0,0,0,0,0,0
282,'2025/06/16 11:18:18:168',2,0.328083,-0.047411,-0.08349,-0.080256,-0.30233,0.156331,0,-0.345704,0.746656,0.628744,-0.002993,0.805089,0.545063,0.014395,0.75878,0.612549,0.010772,-0.043319,0,0.29701,0,0,0,0,1,0,0,0,0,0,0,0,0,0,0
283,'2025/06/16 11:18:18:172',2,0.328083,-0.047411,-0.08349,-0.080256,-0.30233,0.156331,0,-0.345704,0.746656,0.628744,-0.002993,0.805089,0.545063,0.014395,0.75878,0.612549,0.010772,-0.043319,0,0.29701,0,0,0,0,1,0,0,0,0,0,0,0,0,0,0
284,'2025/06/16 11:18:18:174',2,0.328083,-0.047411,-0.08349,-0.080256,-0.30233,0.156331,0,-0.345704,0.746656,0.628744,-0.002993,0.805089,0.545063,0.014395,0.75878,0.612549,0.010772,-0.043319,0,0.29701,0,0,0,0,1,0,0,0,0,0,0,0,0,0,0
285,'2025/06/16 11:18:18:178',2,0.328083,-0.047411,-0.08349,-0.080256,-0.30233,0.156331,0,-0.345704,0.746656,0.628744,-0.002993,0.805089,0.545063,0.014395,0.75878,0.612549,0.010772,-0.043319,0,0.29701,0,0,0,0,1,0,0,0,0,0,0,0,0,0,0
286,'2025/06/16 11:18:18:181',2,0.328083,-0.047411,-0.08349,-0.080256,-0.30233,0.156331,0,-0.345704,0.746656,0.628744,-0.002993,0.805089,0.545063,0.014395,0.75878,0.612549,0.010772,-0.043319,0,0.29701,0,0,0,0,1,0,0,0,0,0,0,0,0,0,0
287,'2025/06/16 11:18:18:185',2,0.328083,-0.047411,-0.08349,-0.080256,-0.30233,0.156331,0,-0.345704,0.746656,0.628744,-0.002993,0.805089,0.545063,0.014395,0.75878,0.612549,0.010772,-0.043319,0,0.29701,0,0,0,0,1,0,0,0,0,0,0,0,0,0,0
288,'2025/06/16 11:18:18:188',2,0.328083,-0.047411,-0.08349,-0.080256,-0.30233,0.156331,0,-0.345704,0.746656,0.628744,-0.002993,0.805089,0.545063,0.014395,0.75878,0.612549,0.010772,-0.043319,0,0.29701,0,0,0,0,1,0,0,0,0,0,0,0,0,0,0
289,'2025/06/16 11:18:18:191',2,0.328083,-0.047411,-0.08349,-0.080256,-0.30233,0.156331,0,-0.345704,0.746656,0.628744,-0.002993,0.805089,0.545063,0.014395,0.75878,0.612549,0.010772,-0.043319,0,0.29701,0,0,0,0,1,0,0,0,0,0,0,0,0,0,0
290,'2025/06/16 11:18:18:194',2,0.328083,-0.047411,-0.08349,-0.080256,-0.30233,0.156331,0,-0.345704,0.746656,0.628744,-0.002993,0.805089,0.545063,0.014395,0.75878,0.612549,0.010772,-0.043319,0,0.29701,0,0,0,0,1,0,0,0,0,0,0,0,0,0,0
291,'2025/06/16 11:18:18:197',2,0.328083,-0.047411,-0.08349,-0.080256,-0.30233,0.156331,0,-0.345704,0.746656,0.628744,-0.002993,0.805089,0.545063,0.014395,0.75878,0.612549,0.010772,-0.043319,0,0.29701,0,0,0,0,1,0,0,0,0,0,0,0,0,0,0
292,'2025/06/16 11:18:18:200',2,0.328083,-0.047411,-0.08349,-0.080256,-0.30233,0.156331,0,-0.345704,0.746656,0.628744,-0.002993,0.805089,0.545063,0.014395,0.75878,0.612549,0.010772,-0.043319,0,0.29701,0,0,0,0,1,0,0,0,0,0,0,0,0,0,0
293,'2025/06/16 11:18:18:203',2,0.328083,-0.047411,-0.08349,-0.080256,-0.30233,0.156331,0,-0.345704,0.746656,0.628744,-0.002993,0.805089,0.545063,0.014395,0.75878,0.612549,0.010772,-0.043319,0,0.29701,0,0,0,0,1,0,0,0,0,0,0,0,0,0,0
294,'2025/06/16 11:18:18:206',2,0.328083,-0.047411,-0.08349,-0.080256,-0.30233,0.156331,0,-0.345704,0.746656,0.628744,-0.002993,0.805089,0.545063,0.014395,0.75878,0.612549,0.010772,-0.043319,0,0.29701,0,0,0,0,1,0,0,0,0,0,0,0,0,0,0
295,'2025/06/16 11:18:18:210',2,0.328083,-0.047411,-0.08349,-0.080256,-0.30233,0.156331,0,-0.345704,0.746656,0.628744,-0.002993,0.805089,0.545063,0.014395,0.75878,0.612549,0.010772,-0.043319,0,0.29701,0,0,0,0,1,0,0,0,0,0,0,0,0,0,0
296,'2025/06/16 11:18:18:213',2,0.328083,-0.047411,-0.08349,-0.080256,-0.30233,0.156331,0,-0.345704,0.746656,0.628744,-0.002993,0.805089,0.545063,0.014395,0.75878,0.612549,0.010772,-0.043319,0,0.29701,0,0,0,0,1,0,0,0,0,0,0,0,0,0,0
297,'2025/06/16 11:18:18:216',2,0.328083,-0.047411,-0.08349,-0.080256,-0.30233,0.156331,0,-0.345704,0.746656,0.628744,-0.002993,0.805089,0.545063,0.014395,0.75878,0.612549,0.010772,-0.043319,0,0.29701,0,0,0,0,1,0,0,0,0,0,0,0,0,0,0
298,'2025/06/16 11:18:18:219',2,0.328083,-0.047411,-0.08349,-0.080256,-0.30233,0.156331,0,-0.345704,0.746656,0.628744,-0.002993,0.805089,0.545063,0.014395,0.75878,0.612549,0.010772,-0.043319,0,0.29701,0,0,0,0,1,0,0,0,0,0,0,0,0,0,0
299,'2025/06/16 11:18:18:222',2,0.328083,-0.047411,-0.08349,-0.080256,-0.30233,0.156331,0,-0.345704,0.746656,0.628744,-0.002993,0.805089,0.545063,0.014395,0.75878,0.612549,0.010772,-0.043319,0,0.29701,0,0,0,0,1,0,0,0,0,0,0,0,0,0,0
300,'2025/06/16 11:18:18:226',2,0.328083,-0.047411,-0.08349,-0.080256,-0.30233,0.156331,0,-0.345704,0.746656,0.628744,-0.002993,0.805089,0.545063,0.014395,0.75878,0.612549,0.010772,-0.043319,0,0.29701,0,0,0,0,1,0,0,0,0,0,0,0,0,0,0
301,'2025/06/16 11:18:18:229',2,0.328083,-0.047411,-0.08349,-0.080256,-0.30233,0.156331,0,-0.345704,0.746656,0.628744,-0.002993,0.805089,0.545063,0.014395,0.75878,0.612549,0.010772,-0.043319,0,0.29701,0,0,0,0,1,0,0,0,0,0,0,0,0,0,0
302,'2025/06/16 11:18:18:232',2,0.328083,-0.047411,-0.08349,-0.080256,-0.30233,0.156331,0,-0.345704,0.746656,0.628744,-0.002993,0.805089,0.545063,0.014395,0.75878,0.612549,0.010772,-0.043319,0,0.29701,0,0,0,0,1,0,0,0,0,0,0,0,0,0,0
303,'2025/06/16 11:18:18:234',2,0.328083,-0.047411,-0.08349,-0.080256,-0.30233,0.156331,0,-0.345704,0.746656,0.628744,-0.002993,0.805089,0.545063,0.014395,0.75878,0.612549,0.010772,-0.043319,0,0.29701,0,0,0,0,1,0,0,0,0,0,0,0,0,0,0
304,'2025/06/16 11:18:18:238',2,0.328083,-0.047411,-0.08349,-0.080256,-0.30233,0.156331,0,-0.345704,0.746656,0.628744,-0.002993,0.805089,0.545063,0.014395,0.75878,0.612549,0.010772,-0.043319,0,0.29701,0,0,0,0,1,0,0,0,0,0,0,0,0,0,0
305,'2025/06/16 11:18:18:241',2,0.328083,-0.047411,-0.08349,-0.080256,-0.30233,0.156331,0,-0.345704,0.746656,0.628744,-0.002993,0.805089,0.545063,0.014395,0.75878,0.612549,0.010772,-0.043319,0,0.29701,0,0,0,0,1,0,0,0,0,0,0,0,0,0,0
306,'2025/06/16 11:18:18:244',2,0.328083,-0.047411,-0.08349,-0.080256,-0.30233,0.156331,0,-0.345704,0.746656,0.628744,-0.002993,0.805089,0.545063,0.014395,0.75878,0.612549,0.010772,-0.043319,0,0.29701,0,0,0,0,1,0,0,0,0,0,0,0,0,0,0
307,'2025/06/16 11:18:18:248',2,0.328083,-0.047411,-0.08349,-0.080256,-0.30233,0.156331,0,-0.345704,0.746656,0.628744,-0.002993,0.805089,0.545063,0.014395,0.75878,0.612549,0.010772,-0.043319,0,0.29701,0,0,0,0,1,0,0,0,0,0,0,0,0,0,0
308,'2025/06/16 11:18:18:251',2,0.328083,-0.047411,-0.08349,-0.080256,-0.30233,0.156331,0,-0.345704,0.746656,0.628744,-0.002993,0.805089,0.545063,0.014395,0.75878,0.612549,0.010772,-0.043319,0,0.29701,0,0,0,0,1,0,0,0,0,0,0,0,0,0,0
309,'2025/06/16 11:18:18:254',2,0.328083,-0.047411,-0.08349,-0.080256,-0.30233,0.156331,0,-0.345704,0.746656,0.628744,-0.002993,0.805089,0.545063,0.014395,0.75878,0.612549,0.010772,-0.043319,0,0.29701,0,0,0,0,1,0,0,0,0,0,0,0,0,0,0
310,'2025/06/16 11:18:18:259',2,0.328083,-0.047411,-0.08349,-0.080256,-0.30233,0.156331,0,-0.345704,0.746656,0.628744,-0.002993,0.805089,0.545063,0.014395,0.75878,0.612549,0.010772,-0.043319,0,0.29701,0,0,0,0,1,0,0,0,0,0,0,0,0,0,0
311,'2025/06/16 11:18:18:262',2,0.328083,-0.047411,-0.08349,-0.080256,-0.30233,0.156331,0,-0.345704,0.746656,0.628744,-0.002993,0.805089,0.545063,0.014395,0.75878,0.612549,0.010772,-0.043319,0,0.29701,0,0,0,0,1,0,0,0,0,0,0,0,0,0,0
312,'2025/06/16 11:18:18:266',2,0.328083,-0.047411,-0.08349,-0.080256,-0.30233,0.156331,0,-0.345704,0.746656,0.628744,-0.002993,0.805089,0.545063,0.014395,0.75878,0.612549,0.010772,-0.043319,0,0.29701,0,0,0,0,1,0,0,0,0,0,0,0,0,0,0
313,'2025/06/16 11:18:18:269',2,0.328083,-0.047411,-0.08349,-0.080256,-0.30233,0.156331,0,-0.345704,0.746656,0.628744,-0.002993,0.805089,0.545063,0.014395,0.75878,0.612549,0.010772,-0.043319,0,0.29701,0,0,0,0,1,0,0,0,0,0,0,0,0,0,0
314,'2025/06/16 11:18:18:271',2,0.328083,-0.047411,-0.08349,-0.080256,-0.30233,0.156331,0,-0.345704,0.746656,0.628744,-0.002993,0.805089,0.545063,0.014395,0.75878,0.612549,0.010772,-0.043319,0,0.29701,0,0,0,0,1,0,0,0,0,0,0,0,0,0,0
315,'2025/06/16 11:18:18:275',2,0.328083,-0.047411,-0.08349,-0.080256,-0.30233,0.156331,0,-0.345704,0.746656,0.628744,-0.002993,0.805089,0.545063,0.014395,0.75878,0.612549,0.010772,-0.043319,0,0.29701,0,0,0,0,1,0,0,0,0,0,0,0,0,0,0
316,'2025/06/16 11:18:18:278',2,0.328083,-0.047411,-0.08349,-0.080256,-0.30233,0.156331,0,-0.345704,0.746656,0.628744,-0.002993,0.805089,0.545063,0.014395,0.75878,0.612549,0.010772,-0.043319,0,0.29701,0,0,0,0,1,0,0,0,0,0,0,0,0,0,0
317,'2025/06/16 11:18:18:282',2,0.328083,-0.047411,-0.08349,-0.080256,-0.30233,0.156331,0,-0.345704,0.746656,0.628744,-0.002993,0.805089,0.545063,0.014395,0.75878,0.612549,0.010772,-0.043319,0,0.29701,0,0,0,0,1,0,0,0,0,0,0,0,0,0,0
318,'2025/06/16 11:18:18:284',2,0.328083,-0.047411,-0.08349,-0.080256,-0.30233,0.156331,0,-0.345704,0.746656,0.628744,-0.002993,0.805089,0.545063,0.014395,0.75878,0.612549,0.010772,-0.043319,0,0.29701,0,0,0,0,1,0,0,0,0,0,0,0,0,0,0
319,'2025/06/16 11:18:18:288',2,0.328083,-0.047411,-0.08349,-0.080256,-0.30233,0.156331,0,-0.345704,0.746656,0.628744,-0.002993,0.805089,0.545063,0.014395,0.75878,0.612549,0.010772,-0.043319,0,0.29701,0,0,0,0,1,0,0,0,0,0,0,0,0,0,0
320,'2025/06/16 11:18:18:291',2,0.328083,-0.047411,-0.08349,-0.080256,-0.30233,0.156331,0,-0.345704,0.746656,0.628744,-0.002993,0.805089,0.545063,0.014395,0.75878,0.612549,0.010772,-0.043319,0,0.29701,0,0,0,0,1,0,0,0,0,0,0,0,0,0,0
321,'2025/06/16 11:18:18:294',2,0.328083,-0.047411,-0.08349,-0.080256,-0.30233,0.156331,0,-0.345704,0.746656,0.628744,-0.002993,0.805089,0.545063,0.014395,0.75878,0.612549,0.010772,-0.043319,0,0.29701,0,0,0,0,1,0,0,0,0,0,0,0,0,0,0
322,'2025/06/16 11:18:18:297',2,0.328083,-0.047411,-0.08349,-0.080256,-0.30233,0.156331,0,-0.345704,0.746656,0.628744,-0.002993,0.805089,0.545063,0.014395,0.75878,0.612549,0.010772,-0.043319,0,0.29701,0,0,0,0,1,0,0,0,0,0,0,0,0,0,0
323,'2025/06/16 11:18:18:300',2,0.328083,-0.047411,-0.08349,-0.080256,-0.30233,0.156331,0,-0.345704,0.746656,0.628744,-0.002993,0.805089,0.545063,0.014395,0.75878,0.612549,0.010772,-0.043319,0,0.29701,0,0,0,0,1,0,0,0,0,0,0,0,0,0,0
324,'2025/06/16 11:18:18:303',2,0.328083,-0.047411,-0.08349,-0.080256,-0.30233,0.156331,0,-0.345704,0.746656,0.628744,-0.002993,0.805089,0.545063,0.014395,0.75878,0.612549,0.010772,-0.043319,0,0.29701,0,0,0,0,1,0,0,0,0,0,0,0,0,0,0
325,'2025/06/16 11:18:18:307',2,0.328083,-0.047411,-0.08349,-0.080256,-0.30233,0.156331,0,-0.345704,0.746656,0.628744,-0.002993,0.805089,0.545063,0.014395,0.75878,0.612549,0.010772,-0.043319,0,0.29701,0,0,0,0,1,0,0,0,0,0,0,0,0,0,0
326,'2025/06/16 11:18:18:310',2,0.328083,-0.047411,-0.08349,-0.080256,-0.30233,0.156331,0,-0.345704,0.746656,0.628744,-0.002993,0.805089,0.545063,0.014395,0.75878,0.612549,0.010772,-0.043319,0,0.29701,0,0,0,0,1,0,0,0,0,0,0,0,0,0,0
327,'2025/06/16 11:18:18:314',2,0.328083,-0.047411,-0.08349,-0.080256,-0.30233,0.156331,0,-0.345704,0.746656,0.628744,-0.002993,0.805089,0.545063,0.014395,0.75878,0.612549,0.010772,-0.043319,0,0.29701,0,0,0,0,1,0,0,0,0,0,0,0,0,0,0
328,'2025/06/16 11:18:18:316',2,0.328083,-0.047411,-0.08349,-0.080256,-0.30233,0.156331,0,-0.345704,0.746656,0.628744,-0.002993,0.805089,0.545063,0.014395,0.75878,0.612549,0.010772,-0.043319,0,0.29701,0,0,0,0,1,0,0,0,0,0,0,0,0,0,0
329,'2025/06/16 11:18:18:320',2,0.328083,-0.047411,-0.08349,-0.080256,-0.30233,0.156331,0,-0.345704,0.746656,0.628744,-0.002993,0.805089,0.545063,0.014395,0.75878,0.612549,0.010772,-0.043319,0,0.29701,0,0,0,0,1,0,0,0,0,0,0,0,0,0,0
330,'2025/06/16 11:18:18:322',2,0.328083,-0.047411,-0.08349,-0.080256,-0.30233,0.156331,0,-0.345704,0.746656,0.628744,-0.002993,0.805089,0.545063,0.014395,0.75878,0.612549,0.010772,-0.043319,0,0.29701,0,0,0,0,1,0,0,0,0,0,0,0,0,0,0
331,'2025/06/16 11:18:18:326',2,0.328083,-0.047411,-0.08349,-0.080256,-0.30233,0.156331,0,-0.345704,0.746656,0.628744,-0.002993,0.805089,0.545063,0.014395,0.75878,0.612549,0.010772,-0.043319,0,0.29701,0,0,0,0,1,0,0,0,0,0,0,0,0,0,0
332,'2025/06/16 11:18:18:329',2,0.328083,-0.047411,-0.08349,-0.080256,-0.30233,0.156331,0,-0.345704,0.746656,0.628744,-0.002993,0.805089,0.545063,0.014395,0.75878,0.612549,0.010772,-0.043319,0,0.29701,0,0,0,0,1,0,0,0,0,0,0,0,0,0,0
333,'2025/06/16 11:18:18:332',2,0.328083,-0.047411,-0.08349,-0.080256,-0.30233,0.156331,0,-0.345704,0.746656,0.628744,-0.002993,0.805089,0.545063,0.014395,0.75878,0.612549,0.010772,-0.043319,0,0.29701,0,0,0,0,1,0,0,0,0,0,0,0,0,0,0
334,'2025/06/16 11:18:18:335',2,0.328083,-0.047411,-0.08349,-0.080256,-0.30233,0.156331,0,-0.345704,0.746656,0.628744,-0.002993,0.805089,0.545063,0.014395,0.75878,0.612549,0.010772,-0.043319,0,0.29701,0,0,0,0,1,0,0,0,0,0,0,0,0,0,0
335,'2025/06/16 11:18:18:339',2,0.328083,-0.047411,-0.08349,-0.080256,-0.30233,0.156331,0,-0.345704,0.746656,0.628744,-0.002993,0.805089,0.545063,0.014395,0.75878,0.612549,0.010772,-0.043319,0,0.29701,0,0,0,0,1,0,0,0,0,0,0,0,0,0,0
336,'2025/06/16 11:18:18:341',2,0.328083,-0.047411,-0.08349,-0.080256,-0.30233,0.156331,0,-0.345704,0.746656,0.628744,-0.002993,0.805089,0.545063,0.014395,0.75878,0.612549,0.010772,-0.043319,0,0.29701,0,0,0,0,1,0,0,0,0,0,0,0,0,0,0
337,'2025/06/16 11:18:18:344',2,0.328083,-0.047411,-0.08349,-0.080256,-0.30233,0.156331,0,-0.345704,0.746656,0.628744,-0.002993,0.805089,0.545063,0.014395,0.75878,0.612549,0.010772,-0.043319,0,0.29701,0,0,0,0,1,0,0,0,0,0,0,0,0,0,0
338,'2025/06/16 11:18:18:348',2,0.328083,-0.047411,-0.08349,-0.080256,-0.30233,0.156331,0,-0.345704,0.746656,0.628744,-0.002993,0.805089,0.545063,0.014395,0.75878,0.612549,0.010772,-0.043319,0,0.29701,0,0,0,0,1,0,0,0,0,0,0,0,0,0,0
339,'2025/06/16 11:18:18:351',2,0.328083,-0.047411,-0.08349,-0.080256,-0.30233,0.156331,0,-0.345704,0.746656,0.628744,-0.002993,0.805089,0.545063,0.014395,0.75878,0.612549,0.010772,-0.043319,0,0.29701,0,0,0,0,1,0,0,0,0,0,0,0,0,0,0
340,'2025/06/16 11:18:18:354',2,0.328083,-0.047411,-0.08349,-0.080256,-0.30233,0.156331,0,-0.345704,0.746656,0.628744,-0.002993,0.805089,0.545063,0.014395,0.75878,0.612549,0.010772,-0.043319,0,0.29701,0,0,0,0,1,0,0,0,0,0,0,0,0,0,0
341,'2025/06/16 11:18:18:357',2,0.328083,-0.047411,-0.08349,-0.080256,-0.30233,0.156331,0,-0.345704,0.746656,0.628744,-0.002993,0.805089,0.545063,0.014395,0.75878,0.612549,0.010772,-0.043319,0,0.29701,0,0,0,0,1,0,0,0,0,0,0,0,0,0,0
342,'2025/06/16 11:18:18:360',2,0.328083,-0.047411,-0.08349,-0.080256,-0.30233,0.156331,0,-0.345704,0.746656,0.628744,-0.002993,0.805089,0.545063,0.014395,0.75878,0.612549,0.010772,-0.043319,0,0.29701,0,0,0,0,1,0,0,0,0,0,0,0,0,0,0
343,'2025/06/16 11:18:18:363',2,0.328083,-0.047411,-0.08349,-0.080256,-0.30233,0.156331,0,-0.345704,0.746656,0.628744,-0.002993,0.805089,0.545063,0.014395,0.75878,0.612549,0.010772,-0.043319,0,0.29701,0,0,0,0,1,0,0,0,0,0,0,0,0,0,0
344,'2025/06/16 11:18:18:366',2,0.328083,-0.047411,-0.08349,-0.080256,-0.30233,0.156331,0,-0.345704,0.746656,0.628744,-0.002993,0.805089,0.545063,0.014395,0.75878,0.612549,0.010772,-0.043319,0,0.29701,0,0,0,0,1,0,0,0,0,0,0,0,0,0,0
345,'2025/06/16 11:18:18:369',2,0.328083,-0.047411,-0.08349,-0.080256,-0.30233,0.156331,0,-0.345704,0.746656,0.628744,-0.002993,0.805089,0.545063,0.014395,0.75878,0.612549,0.010772,-0.043319,0,0.29701,0,0,0,0,1,0,0,0,0,0,0,0,0,0,0
346,'2025/06/16 11:18:18:372',2,0.328083,-0.047411,-0.08349,-0.080256,-0.30233,0.156331,0,-0.345704,0.746656,0.628744,-0.002993,0.805089,0.545063,0.014395,0.75878,0.612549,0.010772,-0.043319,0,0.29701,0,0,0,0,1,0,0,0,0,0,0,0,0,0,0
347,'2025/06/16 11:18:18:376',2,0.328083,-0.047411,-0.08349,-0.080256,-0.30233,0.156331,0,-0.345704,0.746656,0.628744,-0.002993,0.805089,0.545063,0.014395,0.75878,0.612549,0.010772,-0.043319,0,0.29701,0,0,0,0,1,0,0,0,0,0,0,0,0,0,0
348,'2025/06/16 11:18:18:379',2,0.328083,-0.047411,-0.08349,-0.080256,-0.30233,0.156331,0,-0.345704,0.746656,0.628744,-0.002993,0.805089,0.545063,0.014395,0.75878,0.612549,0.010772,-0.043319,0,0.29701,0,0,0,0,1,0,0,0,0,0,0,0,0,0,0
349,'2025/06/16 11:18:18:382',2,0.328083,-0.047411,-0.08349,-0.080256,-0.30233,0.156331,0,-0.345704,0.746656,0.628744,-0.002993,0.805089,0.545063,0.014395,0.75878,0.612549,0.010772,-0.043319,0,0.29701,0,0,0,0,1,0,0,0,0,0,0,0,0,0,0
350,'2025/06/16 11:18:18:386',2,0.328083,-0.047411,-0.08349,-0.080256,-0.30233,0.156331,0,-0.345704,0.746656,0.628744,-0.002993,0.805089,0.545063,0.014395,0.75878,0.612549,0.010772,-0.043319,0,0.29701,0,0,0,0,1,0,0,0,0,0,0,0,0,0,0
351,'2025/06/16 11:18:18:389',2,0.328083,-0.047411,-0.08349,-0.080256,-0.30233,0.156331,0,-0.345704,0.746656,0.628744,-0.002993,0.805089,0.545063,0.014395,0.75878,0.612549,0.010772,-0.043319,0,0.29701,0,0,0,0,1,0,0,0,0,0,0,0,0,0,0
352,'2025/06/16 11:18:18:392',2,0.328083,-0.047411,-0.08349,-0.080256,-0.30233,0.156331,0,-0.345704,0.746656,0.628744,-0.002993,0.805089,0.545063,0.014395,0.75878,0.612549,0.010772,-0.043319,0,0.29701,0,0,0,0,1,0,0,0,0,0,0,0,0,0,0
353,'2025/06/16 11:19:27:141',3,0.247582,0.064566,-0.089833,-0.087518,-0.12475,0.233277,0,-0.271001,0.017696,-0.004264,-0.075254,0.775517,0.63946,0.021258,0.755747,0.64919,0.017642,-0.017874,0,0.117757,0,0,0,0,0,1,0,0,0,0,0,0,0,0,0
354,'2025/06/16 11:19:27:144',3,0.247582,0.064566,-0.089833,-0.087518,-0.12475,0.233277,0,-0.271001,0.017696,-0.004264,-0.075254,0.775517,0.63946,0.021258,0.755747,0.64919,0.017642,-0.017874,0,0.117757,0,0,0,0,0,1,0,0,0,0,0,0,0,0,0
355,'2025/06/16 11:19:27:148',3,0.247582,0.064566,-0.089833,-0.087518,-0.12475,0.233277,0,-0.271001,0.017696,-0.004264,-0.075254,0.775517,0.63946,0.021258,0.755747,0.64919,0.017642,-0.017874,0,0.117757,0,0,0,0,0,1,0,0,0,0,0,0,0,0,0
356,'2025/06/16 11:19:27:152',3,0.247582,0.064566,-0.089833,-0.087518,-0.12475,0.233277,0,-0.271001,0.017696,-0.004264,-0.075254,0.775517,0.63946,0.021258,0.755747,0.64919,0.017642,-0.017874,0,0.117757,0,0,0,0,0,1,0,0,0,0,0,0,0,0,0
357,'2025/06/16 11:19:27:155',3,0.247582,0.064566,-0.089833,-0.087518,-0.12475,0.233277,0,-0.271001,0.017696,-0.004264,-0.075254,0.775517,0.63946,0.021258,0.755747,0.64919,0.017642,-0.017874,0,0.117757,0,0,0,0,0,1,0,0,0,0,0,0,0,0,0
358,'2025/06/16 11:19:27:159',3,0.247582,0.064566,-0.089833,-0.087518,-0.12475,0.233277,0,-0.271001,0.017696,-0.004264,-0.075254,0.775517,0.63946,0.021258,0.755747,0.64919,0.017642,-0.017874,0,0.117757,0,0,0,0,0,1,0,0,0,0,0,0,0,0,0
359,'2025/06/16 11:19:27:161',3,0.247582,0.064566,-0.089833,-0.087518,-0.12475,0.233277,0,-0.271001,0.017696,-0.004264,-0.075254,0.775517,0.63946,0.021258,0.755747,0.64919,0.017642,-0.017874,0,0.117757,0,0,0,0,0,1,0,0,0,0,0,0,0,0,0
360,'2025/06/16 11:19:27:164',3,0.247582,0.064566,-0.089833,-0.087518,-0.12475,0.233277,0,-0.271001,0.017696,-0.004264,-0.075254,0.775517,0.63946,0.021258,0.755747,0.64919,0.017642,-0.017874,0,0.117757,0,0,0,0,0,1,0,0,0,0,0,0,0,0,0
361,'2025/06/16 11:19:27:168',3,0.247582,0.064566,-0.089833,-0.087518,-0.12475,0.233277,0,-0.271001,0.017696,-0.004264,-0.075254,0.775517,0.63946,0.021258,0.755747,0.64919,0.017642,-0.017874,0,0.117757,0,0,0,0,0,1,0,0,0,0,0,0,0,0,0
362,'2025/06/16 11:19:27:171',3,0.247582,0.064566,-0.089833,-0.087518,-0.12475,0.233277,0,-0.271001,0.017696,-0.004264,-0.075254,0.775517,0.63946,0.021258,0.755747,0.64919,0.017642,-0.017874,0,0.117757,0,0,0,0,0,1,0,0,0,0,0,0,0,0,0
363,'2025/06/16 11:19:27:174',3,0.247582,0.064566,-0.089833,-0.087518,-0.12475,0.233277,0,-0.271001,0.017696,-0.004264,-0.075254,0.775517,0.63946,0.021258,0.755747,0.64919,0.017642,-0.017874,0,0.117757,0,0,0,0,0,1,0,0,0,0,0,0,0,0,0
364,'2025/06/16 11:19:27:177',3,0.247582,0.064566,-0.089833,-0.087518,-0.12475,0.233277,0,-0.271001,0.017696,-0.004264,-0.075254,0.775517,0.63946,0.021258,0.755747,0.64919,0.017642,-0.017874,0,0.117757,0,0,0,0,0,1,0,0,0,0,0,0,0,0,0
365,'2025/06/16 11:19:27:180',3,0.247582,0.064566,-0.089833,-0.087518,-0.12475,0.233277,0,-0.271001,0.017696,-0.004264,-0.075254,0.775517,0.63946,0.021258,0.755747,0.64919,0.017642,-0.017874,0,0.117757,0,0,0,0,0,1,0,0,0,0,0,0,0,0,0
366,'2025/06/16 11:19:27:184',3,0.247582,0.064566,-0.089833,-0.087518,-0.12475,0.233277,0,-0.271001,0.017696,-0.004264,-0.075254,0.775517,0.63946,0.021258,0.755747,0.64919,0.017642,-0.017874,0,0.117757,0,0,0,0,0,1,0,0,0,0,0,0,0,0,0
367,'2025/06/16 11:19:27:187',3,0.247582,0.064566,-0.089833,-0.087518,-0.12475,0.233277,0,-0.271001,0.017696,-0.004264,-0.075254,0.775517,0.63946,0.021258,0.755747,0.64919,0.017642,-0.017874,0,0.117757,0,0,0,0,0,1,0,0,0,0,0,0,0,0,0
368,'2025/06/16 11:19:27:190',3,0.247582,0.064566,-0.089833,-0.087518,-0.12475,0.233277,0,-0.271001,0.017696,-0.004264,-0.075254,0.775517,0.63946,0.021258,0.755747,0.64919,0.017642,-0.017874,0,0.117757,0,0,0,0,0,1,0,0,0,0,0,0,0,0,0
369,'2025/06/16 11:19:27:193',3,0.247582,0.064566,-0.089833,-0.087518,-0.12475,0.233277,0,-0.271001,0.017696,-0.004264,-0.075254,0.775517,0.63946,0.021258,0.755747,0.64919,0.017642,-0.017874,0,0.117757,0,0,0,0,0,1,0,0,0,0,0,0,0,0,0
370,'2025/06/16 11:19:27:197',3,0.247582,0.064566,-0.089833,-0.087518,-0.12475,0.233277,0,-0.271001,0.017696,-0.004264,-0.075254,0.775517,0.63946,0.021258,0.755747,0.64919,0.017642,-0.017874,0,0.117757,0,0,0,0,0,1,0,0,0,0,0,0,0,0,0
371,'2025/06/16 11:19:27:200',3,0.247582,0.064566,-0.089833,-0.087518,-0.12475,0.233277,0,-0.271001,0.017696,-0.004264,-0.075254,0.775517,0.63946,0.021258,0.755747,0.64919,0.017642,-0.017874,0,0.117757,0,0,0,0,0,1,0,0,0,0,0,0,0,0,0
372,'2025/06/16 11:19:27:203',3,0.247582,0.064566,-0.089833,-0.087518,-0.12475,0.233277,0,-0.271001,0.017696,-0.004264,-0.075254,0.775517,0.63946,0.021258,0.755747,0.64919,0.017642,-0.017874,0,0.117757,0,0,0,0,0,1,0,0,0,0,0,0,0,0,0
373,'2025/06/16 11:19:27:207',3,0.247582,0.064566,-0.089833,-0.087518,-0.12475,0.233277,0,-0.271001,0.017696,-0.004264,-0.075254,0.775517,0.63946,0.021258,0.755747,0.64919,0.017642,-0.017874,0,0.117757,0,0,0,0,0,1,0,0,0,0,0,0,0,0,0
374,'2025/06/16 11:19:27:210',3,0.247582,0.064566,-0.089833,-0.087518,-0.12475,0.233277,0,-0.271001,0.017696,-0.004264,-0.075254,0.775517,0.63946,0.021258,0.755747,0.64919,0.017642,-0.017874,0,0.117757,0,0,0,0,0,1,0,0,0,0,0,0,0,0,0
375,'2025/06/16 11:19:27:213',3,0.247582,0.064566,-0.089833,-0.087518,-0.12475,0.233277,0,-0.271001,0.017696,-0.004264,-0.075254,0.775517,0.63946,0.021258,0.755747,0.64919,0.017642,-0.017874,0,0.117757,0,0,0,0,0,1,0,0,0,0,0,0,0,0,0
376,'2025/06/16 11:19:27:217',3,0.247582,0.064566,-0.089833,-0.087518,-0.12475,0.233277,0,-0.271001,0.017696,-0.004264,-0.075254,0.775517,0.63946,0.021258,0.755747,0.64919,0.017642,-0.017874,0,0.117757,0,0,0,0,0,1,0,0,0,0,0,0,0,0,0
377,'2025/06/16 11:19:27:220',3,0.247582,0.064566,-0.089833,-0.087518,-0.12475,0.233277,0,-0.271001,0.017696,-0.004264,-0.075254,0.775517,0.63946,0.021258,0.755747,0.64919,0.017642,-0.017874,0,0.117757,0,0,0,0,0,1,0,0,0,0,0,0,0,0,0
378,'2025/06/16 11:19:27:222',3,0.247582,0.064566,-0.089833,-0.087518,-0.12475,0.233277,0,-0.271001,0.017696,-0.004264,-0.075254,0.775517,0.63946,0.021258,0.755747,0.64919,0.017642,-0.017874,0,0.117757,0,0,0,0,0,1,0,0,0,0,0,0,0,0,0
379,'2025/06/16 11:19:27:226',3,0.247582,0.064566,-0.089833,-0.087518,-0.12475,0.233277,0,-0.271001,0.017696,-0.004264,-0.075254,0.775517,0.63946,0.021258,0.755747,0.64919,0.017642,-0.017874,0,0.117757,0,0,0,0,0,1,0,0,0,0,0,0,0,0,0
380,'2025/06/16 11:19:27:229',3,0.247582,0.064566,-0.089833,-0.087518,-0.12475,0.233277,0,-0.271001,0.017696,-0.004264,-0.075254,0.775517,0.63946,0.021258,0.755747,0.64919,0.017642,-0.017874,0,0.117757,0,0,0,0,0,1,0,0,0,0,0,0,0,0,0
381,'2025/06/16 11:19:27:233',3,0.247582,0.064566,-0.089833,-0.087518,-0.12475,0.233277,0,-0.271001,0.017696,-0.004264,-0.075254,0.775517,0.63946,0.021258,0.755747,0.64919,0.017642,-0.017874,0,0.117757,0,0,0,0,0,1,0,0,0,0,0,0,0,0,0
382,'2025/06/16 11:19:27:235',3,0.247582,0.064566,-0.089833,-0.087518,-0.12475,0.233277,0,-0.271001,0.017696,-0.004264,-0.075254,0.775517,0.63946,0.021258,0.755747,0.64919,0.017642,-0.017874,0,0.117757,0,0,0,0,0,1,0,0,0,0,0,0,0,0,0
383,'2025/06/16 11:19:27:239',3,0.247582,0.064566,-0.089833,-0.087518,-0.12475,0.233277,0,-0.271001,0.017696,-0.004264,-0.075254,0.775517,0.63946,0.021258,0.755747,0.64919,0.017642,-0.017874,0,0.117757,0,0,0,0,0,1,0,0,0,0,0,0,0,0,0
384,'2025/06/16 11:19:27:242',3,0.247582,0.064566,-0.089833,-0.087518,-0.12475,0.233277,0,-0.271001,0.017696,-0.004264,-0.075254,0.775517,0.63946,0.021258,0.755747,0.64919,0.017642,-0.017874,0,0.117757,0,0,0,0,0,1,0,0,0,0,0,0,0,0,0
385,'2025/06/16 11:19:27:245',3,0.247582,0.064566,-0.089833,-0.087518,-0.12475,0.233277,0,-0.271001,0.017696,-0.004264,-0.075254,0.775517,0.63946,0.021258,0.755747,0.64919,0.017642,-0.017874,0,0.117757,0,0,0,0,0,1,0,0,0,0,0,0,0,0,0
386,'2025/06/16 11:19:27:249',3,0.247582,0.064566,-0.089833,-0.087518,-0.12475,0.233277,0,-0.271001,0.017696,-0.004264,-0.075254,0.775517,0.63946,0.021258,0.755747,0.64919,0.017642,-0.017874,0,0.117757,0,0,0,0,0,1,0,0,0,0,0,0,0,0,0
387,'2025/06/16 11:19:27:252',3,0.247582,0.064566,-0.089833,-0.087518,-0.12475,0.233277,0,-0.271001,0.017696,-0.004264,-0.075254,0.775517,0.63946,0.021258,0.755747,0.64919,0.017642,-0.017874,0,0.117757,0,0,0,0,0,1,0,0,0,0,0,0,0,0,0
388,'2025/06/16 11:19:27:254',3,0.247582,0.064566,-0.089833,-0.087518,-0.12475,0.233277,0,-0.271001,0.017696,-0.004264,-0.075254,0.775517,0.63946,0.021258,0.755747,0.64919,0.017642,-0.017874,0,0.117757,0,0,0,0,0,1,0,0,0,0,0,0,0,0,0
389,'2025/06/16 11:19:27:258',3,0.247582,0.064566,-0.089833,-0.087518,-0.12475,0.233277,0,-0.271001,0.017696,-0.004264,-0.075254,0.775517,0.63946,0.021258,0.755747,0.64919,0.017642,-0.017874,0,0.117757,0,0,0,0,0,1,0,0,0,0,0,0,0,0,0
390,'2025/06/16 11:19:27:262',3,0.247582,0.064566,-0.089833,-0.087518,-0.12475,0.233277,0,-0.271001,0.017696,-0.004264,-0.075254,0.775517,0.63946,0.021258,0.755747,0.64919,0.017642,-0.017874,0,0.117757,0,0,0,0,0,1,0,0,0,0,0,0,0,0,0
391,'2025/06/16 11:19:27:265',3,0.247582,0.064566,-0.089833,-0.087518,-0.12475,0.233277,0,-0.271001,0.017696,-0.004264,-0.075254,0.775517,0.63946,0.021258,0.755747,0.64919,0.017642,-0.017874,0,0.117757,0,0,0,0,0,1,0,0,0,0,0,0,0,0,0
392,'2025/06/16 11:19:27:267',3,0.247582,0.064566,-0.089833,-0.087518,-0.12475,0.233277,0,-0.271001,0.017696,-0.004264,-0.075254,0.775517,0.63946,0.021258,0.755747,0.64919,0.017642,-0.017874,0,0.117757,0,0,0,0,0,1,0,0,0,0,0,0,0,0,0
393,'2025/06/16 11:19:27:270',3,0.247582,0.064566,-0.089833,-0.087518,-0.12475,0.233277,0,-0.271001,0.017696,-0.004264,-0.075254,0.775517,0.63946,0.021258,0.755747,0.64919,0.017642,-0.017874,0,0.117757,0,0,0,0,0,1,0,0,0,0,0,0,0,0,0
394,'2025/06/16 11:19:27:274',3,0.247582,0.064566,-0.089833,-0.087518,-0.12475,0.233277,0,-0.271001,0.017696,-0.004264,-0.075254,0.775517,0.63946,0.021258,0.755747,0.64919,0.017642,-0.017874,0,0.117757,0,0,0,0,0,1,0,0,0,0,0,0,0,0,0
395,'2025/06/16 11:19:27:277',3,0.247582,0.064566,-0.089833,-0.087518,-0.12475,0.233277,0,-0.271001,0.017696,-0.004264,-0.075254,0.775517,0.63946,0.021258,0.755747,0.64919,0.017642,-0.017874,0,0.117757,0,0,0,0,0,1,0,0,0,0,0,0,0,0,0
396,'2025/06/16 11:19:27:280',3,0.247582,0.064566,-0.089833,-0.087518,-0.12475,0.233277,0,-0.271001,0.017696,-0.004264,-0.075254,0.775517,0.63946,0.021258,0.755747,0.64919,0.017642,-0.017874,0,0.117757,0,0,0,0,0,1,0,0,0,0,0,0,0,0,0
397,'2025/06/16 11:19:27:284',3,0.247582,0.064566,-0.089833,-0.087518,-0.12475,0.233277,0,-0.271001,0.017696,-0.004264,-0.075254,0.775517,0.63946,0.021258,0.755747,0.64919,0.017642,-0.017874,0,0.117757,0,0,0,0,0,1,0,0,0,0,0,0,0,0,0
398,'2025/06/16 11:19:27:287',3,0.247582,0.064566,-0.089833,-0.087518,-0.12475,0.233277,0,-0.271001,0.017696,-0.004264,-0.075254,0.775517,0.63946,0.021258,0.755747,0.64919,0.017642,-0.017874,0,0.117757,0,0,0,0,0,1,0,0,0,0,0,0,0,0,0
399,'2025/06/16 11:19:27:290',3,0.247582,0.064566,-0.089833,-0.087518,-0.12475,0.233277,0,-0.271001,0.017696,-0.004264,-0.075254,0.775517,0.63946,0.021258,0.755747,0.64919,0.017642,-0.017874,0,0.117757,0,0,0,0,0,1,0,0,0,0,0,0,0,0,0
400,'2025/06/16 11:19:27:293',3,0.247582,0.064566,-0.089833,-0.087518,-0.12475,0.233277,0,-0.271001,0.017696,-0.004264,-0.075254,0.775517,0.63946,0.021258,0.755747,0.64919,0.017642,-0.017874,0,0.117757,0,0,0,0,0,1,0,0,0,0,0,0,0,0,0
401,'2025/06/16 11:19:27:296',3,0.247582,0.064566,-0.089833,-0.087518,-0.12475,0.233277,0,-0.271001,0.017696,-0.004264,-0.075254,0.775517,0.63946,0.021258,0.755747,0.64919,0.017642,-0.017874,0,0.117757,0,0,0,0,0,1,0,0,0,0,0,0,0,0,0
402,'2025/06/16 11:19:27:299',3,0.247582,0.064566,-0.089833,-0.087518,-0.12475,0.233277,0,-0.271001,0.017696,-0.004264,-0.075254,0.775517,0.63946,0.021258,0.755747,0.64919,0.017642,-0.017874,0,0.117757,0,0,0,0,0,1,0,0,0,0,0,0,0,0,0
403,'2025/06/16 11:19:27:302',3,0.247582,0.064566,-0.089833,-0.087518,-0.12475,0.233277,0,-0.271001,0.017696,-0.004264,-0.075254,0.775517,0.63946,0.021258,0.755747,0.64919,0.017642,-0.017874,0,0.117757,0,0,0,0,0,1,0,0,0,0,0,0,0,0,0
404,'2025/06/16 11:19:27:304',3,0.247582,0.064566,-0.089833,-0.087518,-0.12475,0.233277,0,-0.271001,0.017696,-0.004264,-0.075254,0.775517,0.63946,0.021258,0.755747,0.64919,0.017642,-0.017874,0,0.117757,0,0,0,0,0,1,0,0,0,0,0,0,0,0,0
405,'2025/06/16 11:19:27:308',3,0.247582,0.064566,-0.089833,-0.087518,-0.12475,0.233277,0,-0.271001,0.017696,-0.004264,-0.075254,0.775517,0.63946,0.021258,0.755747,0.64919,0.017642,-0.017874,0,0.117757,0,0,0,0,0,1,0,0,0,0,0,0,0,0,0
406,'2025/06/16 11:19:27:312',3,0.247582,0.064566,-0.089833,-0.087518,-0.12475,0.233277,0,-0.271001,0.017696,-0.004264,-0.075254,0.775517,0.63946,0.021258,0.755747,0.64919,0.017642,-0.017874,0,0.117757,0,0,0,0,0,1,0,0,0,0,0,0,0,0,0
407,'2025/06/16 11:19:27:315',3,0.247582,0.064566,-0.089833,-0.087518,-0.12475,0.233277,0,-0.271001,0.017696,-0.004264,-0.075254,0.775517,0.63946,0.021258,0.755747,0.64919,0.017642,-0.017874,0,0.117757,0,0,0,0,0,1,0,0,0,0,0,0,0,0,0
408,'2025/06/16 11:19:27:318',3,0.247582,0.064566,-0.089833,-0.087518,-0.12475,0.233277,0,-0.271001,0.017696,-0.004264,-0.075254,0.775517,0.63946,0.021258,0.755747,0.64919,0.017642,-0.017874,0,0.117757,0,0,0,0,0,1,0,0,0,0,0,0,0,0,0
409,'2025/06/16 11:19:27:321',3,0.247582,0.064566,-0.089833,-0.087518,-0.12475,0.233277,0,-0.271001,0.017696,-0.004264,-0.075254,0.775517,0.63946,0.021258,0.755747,0.64919,0.017642,-0.017874,0,0.117757,0,0,0,0,0,1,0,0,0,0,0,0,0,0,0
410,'2025/06/16 11:19:27:324',3,0.247582,0.064566,-0.089833,-0.087518,-0.12475,0.233277,0,-0.271001,0.017696,-0.004264,-0.075254,0.775517,0.63946,0.021258,0.755747,0.64919,0.017642,-0.017874,0,0.117757,0,0,0,0,0,1,0,0,0,0,0,0,0,0,0
411,'2025/06/16 11:19:27:328',3,0.247582,0.064566,-0.089833,-0.087518,-0.12475,0.233277,0,-0.271001,0.017696,-0.004264,-0.075254,0.775517,0.63946,0.021258,0.755747,0.64919,0.017642,-0.017874,0,0.117757,0,0,0,0,0,1,0,0,0,0,0,0,0,0,0
412,'2025/06/16 11:19:27:331',3,0.247582,0.064566,-0.089833,-0.087518,-0.12475,0.233277,0,-0.271001,0.017696,-0.004264,-0.075254,0.775517,0.63946,0.021258,0.755747,0.64919,0.017642,-0.017874,0,0.117757,0,0,0,0,0,1,0,0,0,0,0,0,0,0,0
413,'2025/06/16 11:19:27:333',3,0.247582,0.064566,-0.089833,-0.087518,-0.12475,0.233277,0,-0.271001,0.017696,-0.004264,-0.075254,0.775517,0.63946,0.021258,0.755747,0.64919,0.017642,-0.017874,0,0.117757,0,0,0,0,0,1,0,0,0,0,0,0,0,0,0
414,'2025/06/16 11:19:27:338',3,0.247582,0.064566,-0.089833,-0.087518,-0.12475,0.233277,0,-0.271001,0.017696,-0.004264,-0.075254,0.775517,0.63946,0.021258,0.755747,0.64919,0.017642,-0.017874,0,0.117757,0,0,0,0,0,1,0,0,0,0,0,0,0,0,0
415,'2025/06/16 11:19:27:340',3,0.247582,0.064566,-0.089833,-0.087518,-0.12475,0.233277,0,-0.271001,0.017696,-0.004264,-0.075254,0.775517,0.63946,0.021258,0.755747,0.64919,0.017642,-0.017874,0,0.117757,0,0,0,0,0,1,0,0,0,0,0,0,0,0,0
416,'2025/06/16 11:19:27:343',3,0.247582,0.064566,-0.089833,-0.087518,-0.12475,0.233277,0,-0.271001,0.017696,-0.004264,-0.075254,0.775517,0.63946,0.021258,0.755747,0.64919,0.017642,-0.017874,0,0.117757,0,0,0,0,0,1,0,0,0,0,0,0,0,0,0
417,'2025/06/16 11:19:27:347',3,0.247582,0.064566,-0.089833,-0.087518,-0.12475,0.233277,0,-0.271001,0.017696,-0.004264,-0.075254,0.775517,0.63946,0.021258,0.755747,0.64919,0.017642,-0.017874,0,0.117757,0,0,0,0,0,1,0,0,0,0,0,0,0,0,0
418,'2025/06/16 11:19:27:350',3,0.247582,0.064566,-0.089833,-0.087518,-0.12475,0.233277,0,-0.271001,0.017696,-0.004264,-0.075254,0.775517,0.63946,0.021258,0.755747,0.64919,0.017642,-0.017874,0,0.117757,0,0,0,0,0,1,0,0,0,0,0,0,0,0,0
419,'2025/06/16 11:19:27:353',3,0.247582,0.064566,-0.089833,-0.087518,-0.12475,0.233277,0,-0.271001,0.017696,-0.004264,-0.075254,0.775517,0.63946,0.021258,0.755747,0.64919,0.017642,-0.017874,0,0.117757,0,0,0,0,0,1,0,0,0,0,0,0,0,0,0
420,'2025/06/16 11:19:27:356',3,0.247582,0.064566,-0.089833,-0.087518,-0.12475,0.233277,0,-0.271001,0.017696,-0.004264,-0.075254,0.775517,0.63946,0.021258,0.755747,0.64919,0.017642,-0.017874,0,0.117757,0,0,0,0,0,1,0,0,0,0,0,0,0,0,0
421,'2025/06/16 11:19:27:359',3,0.247582,0.064566,-0.089833,-0.087518,-0.12475,0.233277,0,-0.271001,0.017696,-0.004264,-0.075254,0.775517,0.63946,0.021258,0.755747,0.64919,0.017642,-0.017874,0,0.117757,0,0,0,0,0,1,0,0,0,0,0,0,0,0,0
422,'2025/06/16 11:19:27:362',3,0.247582,0.064566,-0.089833,-0.087518,-0.12475,0.233277,0,-0.271001,0.017696,-0.004264,-0.075254,0.775517,0.63946,0.021258,0.755747,0.64919,0.017642,-0.017874,0,0.117757,0,0,0,0,0,1,0,0,0,0,0,0,0,0,0
423,'2025/06/16 11:19:27:365',3,0.247582,0.064566,-0.089833,-0.087518,-0.12475,0.233277,0,-0.271001,0.017696,-0.004264,-0.075254,0.775517,0.63946,0.021258,0.755747,0.64919,0.017642,-0.017874,0,0.117757,0,0,0,0,0,1,0,0,0,0,0,0,0,0,0
424,'2025/06/16 11:19:27:368',3,0.247582,0.064566,-0.089833,-0.087518,-0.12475,0.233277,0,-0.271001,0.017696,-0.004264,-0.075254,0.775517,0.63946,0.021258,0.755747,0.64919,0.017642,-0.017874,0,0.117757,0,0,0,0,0,1,0,0,0,0,0,0,0,0,0
425,'2025/06/16 11:19:27:372',3,0.247582,0.064566,-0.089833,-0.087518,-0.12475,0.233277,0,-0.271001,0.017696,-0.004264,-0.075254,0.775517,0.63946,0.021258,0.755747,0.64919,0.017642,-0.017874,0,0.117757,0,0,0,0,0,1,0,0,0,0,0,0,0,0,0
426,'2025/06/16 11:19:27:375',3,0.247582,0.064566,-0.089833,-0.087518,-0.12475,0.233277,0,-0.271001,0.017696,-0.004264,-0.075254,0.775517,0.63946,0.021258,0.755747,0.64919,0.017642,-0.017874,0,0.117757,0,0,0,0,0,1,0,0,0,0,0,0,0,0,0
427,'2025/06/16 11:19:27:378',3,0.247582,0.064566,-0.089833,-0.087518,-0.12475,0.233277,0,-0.271001,0.017696,-0.004264,-0.075254,0.775517,0.63946,0.021258,0.755747,0.64919,0.017642,-0.017874,0,0.117757,0,0,0,0,0,1,0,0,0,0,0,0,0,0,0
428,'2025/06/16 11:19:27:381',3,0.247582,0.064566,-0.089833,-0.087518,-0.12475,0.233277,0,-0.271001,0.017696,-0.004264,-0.075254,0.775517,0.63946,0.021258,0.755747,0.64919,0.017642,-0.017874,0,0.117757,0,0,0,0,0,1,0,0,0,0,0,0,0,0,0
429,'2025/06/16 11:19:27:384',3,0.247582,0.064566,-0.089833,-0.087518,-0.12475,0.233277,0,-0.271001,0.017696,-0.004264,-0.075254,0.775517,0.63946,0.021258,0.755747,0.64919,0.017642,-0.017874,0,0.117757,0,0,0,0,0,1,0,0,0,0,0,0,0,0,0
430,'2025/06/16 11:19:27:388',3,0.247582,0.064566,-0.089833,-0.087518,-0.12475,0.233277,0,-0.271001,0.017696,-0.004264,-0.075254,0.775517,0.63946,0.021258,0.755747,0.64919,0.017642,-0.017874,0,0.117757,0,0,0,0,0,1,0,0,0,0,0,0,0,0,0
431,'2025/06/16 11:19:27:391',3,0.247582,0.064566,-0.089833,-0.087518,-0.12475,0.233277,0,-0.271001,0.017696,-0.004264,-0.075254,0.775517,0.63946,0.021258,0.755747,0.64919,0.017642,-0.017874,0,0.117757,0,0,0,0,0,1,0,0,0,0,0,0,0,0,0
432,'2025/06/16 11:19:27:394',3,0.247582,0.064566,-0.089833,-0.087518,-0.12475,0.233277,0,-0.271001,0.017696,-0.004264,-0.075254,0.775517,0.63946,0.021258,0.755747,0.64919,0.017642,-0.017874,0,0.117757,0,0,0,0,0,1,0,0,0,0,0,0,0,0,0
433,'2025/06/16 11:19:27:397',3,0.247582,0.064566,-0.089833,-0.087518,-0.12475,0.233277,0,-0.271001,0.017696,-0.004264,-0.075254,0.775517,0.63946,0.021258,0.755747,0.64919,0.017642,-0.017874,0,0.117757,0,0,0,0,0,1,0,0,0,0,0,0,0,0,0
434,'2025/06/16 11:19:27:400',3,0.247582,0.064566,-0.089833,-0.087518,-0.12475,0.233277,0,-0.271001,0.017696,-0.004264,-0.075254,0.775517,0.63946,0.021258,0.755747,0.64919,0.017642,-0.017874,0,0.117757,0,0,0,0,0,1,0,0,0,0,0,0,0,0,0
435,'2025/06/16 11:19:27:403',3,0.247582,0.064566,-0.089833,-0.087518,-0.12475,0.233277,0,-0.271001,0.017696,-0.004264,-0.075254,0.775517,0.63946,0.021258,0.755747,0.64919,0.017642,-0.017874,0,0.117757,0,0,0,0,0,1,0,0,0,0,0,0,0,0,0
436,'2025/06/16 11:19:27:406',3,0.247582,0.064566,-0.089833,-0.087518,-0.12475,0.233277,0,-0.271001,0.017696,-0.004264,-0.075254,0.775517,0.63946,0.021258,0.755747,0.64919,0.017642,-0.017874,0,0.117757,0,0,0,0,0,1,0,0,0,0,0,0,0,0,0
437,'2025/06/16 11:19:27:409',3,0.247582,0.064566,-0.089833,-0.087518,-0.12475,0.233277,0,-0.271001,0.017696,-0.004264,-0.075254,0.775517,0.63946,0.021258,0.755747,0.64919,0.017642,-0.017874,0,0.117757,0,0,0,0,0,1,0,0,0,0,0,0,0,0,0
438,'2025/06/16 11:19:27:413',3,0.247582,0.064566,-0.089833,-0.087518,-0.12475,0.233277,0,-0.271001,0.017696,-0.004264,-0.075254,0.775517,0.63946,0.021258,0.755747,0.64919,0.017642,-0.017874,0,0.117757,0,0,0,0,0,1,0,0,0,0,0,0,0,0,0
439,'2025/06/16 11:19:27:415',3,0.247582,0.064566,-0.089833,-0.087518,-0.12475,0.233277,0,-0.271001,0.017696,-0.004264,-0.075254,0.775517,0.63946,0.021258,0.755747,0.64919,0.017642,-0.017874,0,0.117757,0,0,0,0,0,1,0,0,0,0,0,0,0,0,0
440,'2025/06/16 11:19:27:419',3,0.247582,0.064566,-0.089833,-0.087518,-0.12475,0.233277,0,-0.271001,0.017696,-0.004264,-0.075254,0.775517,0.63946,0.021258,0.755747,0.64919,0.017642,-0.017874,0,0.117757,0,0,0,0,0,1,0,0,0,0,0,0,0,0,0
441,'2025/06/16 11:19:27:421',3,0.247582,0.064566,-0.089833,-0.087518,-0.12475,0.233277,0,-0.271001,0.017696,-0.004264,-0.075254,0.775517,0.63946,0.021258,0.755747,0.64919,0.017642,-0.017874,0,0.117757,0,0,0,0,0,1,0,0,0,0,0,0,0,0,0
442,'2025/06/16 11:19:27:425',3,0.247582,0.064566,-0.089833,-0.087518,-0.12475,0.233277,0,-0.271001,0.017696,-0.004264,-0.075254,0.775517,0.63946,0.021258,0.755747,0.64919,0.017642,-0.017874,0,0.117757,0,0,0,0,0,1,0,0,0,0,0,0,0,0,0
443,'2025/06/16 11:19:27:428',3,0.247582,0.064566,-0.089833,-0.087518,-0.12475,0.233277,0,-0.271001,0.017696,-0.004264,-0.075254,0.775517,0.63946,0.021258,0.755747,0.64919,0.017642,-0.017874,0,0.117757,0,0,0,0,0,1,0,0,0,0,0,0,0,0,0
444,'2025/06/16 11:19:27:431',3,0.247582,0.064566,-0.089833,-0.087518,-0.12475,0.233277,0,-0.271001,0.017696,-0.004264,-0.075254,0.775517,0.63946,0.021258,0.755747,0.64919,0.017642,-0.017874,0,0.117757,0,0,0,0,0,1,0,0,0,0,0,0,0,0,0
445,'2025/06/16 11:19:27:435',3,0.247582,0.064566,-0.089833,-0.087518,-0.12475,0.233277,0,-0.271001,0.017696,-0.004264,-0.075254,0.775517,0.63946,0.021258,0.755747,0.64919,0.017642,-0.017874,0,0.117757,0,0,0,0,0,1,0,0,0,0,0,0,0,0,0
446,'2025/06/16 11:19:27:437',3,0.247582,0.064566,-0.089833,-0.087518,-0.12475,0.233277,0,-0.271001,0.017696,-0.004264,-0.075254,0.775517,0.63946,0.021258,0.755747,0.64919,0.017642,-0.017874,0,0.117757,0,0,0,0,0,1,0,0,0,0,0,0,0,0,0
447,'2025/06/16 11:19:27:441',3,0.247582,0.064566,-0.089833,-0.087518,-0.12475,0.233277,0,-0.271001,0.017696,-0.004264,-0.075254,0.775517,0.63946,0.021258,0.755747,0.64919,0.017642,-0.017874,0,0.117757,0,0,0,0,0,1,0,0,0,0,0,0,0,0,0
448,'2025/06/16 11:19:27:444',3,0.247582,0.064566,-0.089833,-0.087518,-0.12475,0.233277,0,-0.271001,0.017696,-0.004264,-0.075254,0.775517,0.63946,0.021258,0.755747,0.64919,0.017642,-0.017874,0,0.117757,0,0,0,0,0,1,0,0,0,0,0,0,0,0,0
449,'2025/06/16 11:19:27:448',3,0.247582,0.064566,-0.089833,-0.087518,-0.12475,0.233277,0,-0.271001,0.017696,-0.004264,-0.075254,0.775517,0.63946,0.021258,0.755747,0.64919,0.017642,-0.017874,0,0.117757,0,0,0,0,0,1,0,0,0,0,0,0,0,0,0
450,'2025/06/16 11:19:27:451',3,0.247582,0.064566,-0.089833,-0.087518,-0.12475,0.233277,0,-0.271001,0.017696,-0.004264,-0.075254,0.775517,0.63946,0.021258,0.755747,0.64919,0.017642,-0.017874,0,0.117757,0,0,0,0,0,1,0,0,0,0,0,0,0,0,0
451,'2025/06/16 11:19:27:454',3,0.247582,0.064566,-0.089833,-0.087518,-0.12475,0.233277,0,-0.271001,0.017696,-0.004264,-0.075254,0.775517,0.63946,0.021258,0.755747,0.64919,0.017642,-0.017874,0,0.117757,0,0,0,0,0,1,0,0,0,0,0,0,0,0,0
452,'2025/06/16 11:19:27:458',3,0.247582,0.064566,-0.089833,-0.087518,-0.12475,0.233277,0,-0.271001,0.017696,-0.004264,-0.075254,0.775517,0.63946,0.021258,0.755747,0.64919,0.017642,-0.017874,0,0.117757,0,0,0,0,0,1,0,0,0,0,0,0,0,0,0
453,'2025/06/16 11:19:27:462',3,0.247582,0.064566,-0.089833,-0.087518,-0.12475,0.233277,0,-0.271001,0.017696,-0.004264,-0.075254,0.775517,0.63946,0.021258,0.755747,0.64919,0.017642,-0.017874,0,0.117757,0,0,0,0,0,1,0,0,0,0,0,0,0,0,0
454,'2025/06/16 11:19:27:465',3,0.247582,0.064566,-0.089833,-0.087518,-0.12475,0.233277,0,-0.271001,0.017696,-0.004264,-0.075254,0.775517,0.63946,0.021258,0.755747,0.64919,0.017642,-0.017874,0,0.117757,0,0,0,0,0,1,0,0,0,0,0,0,0,0,0
455,'2025/06/16 11:19:27:468',3,0.247582,0.064566,-0.089833,-0.087518,-0.12475,0.233277,0,-0.271001,0.017696,-0.004264,-0.075254,0.775517,0.63946,0.021258,0.755747,0.64919,0.017642,-0.017874,0,0.117757,0,0,0,0,0,1,0,0,0,0,0,0,0,0,0
456,'2025/06/16 11:19:27:471',3,0.247582,0.064566,-0.089833,-0.087518,-0.12475,0.233277,0,-0.271001,0.017696,-0.004264,-0.075254,0.775517,0.63946,0.021258,0.755747,0.64919,0.017642,-0.017874,0,0.117757,0,0,0,0,0,1,0,0,0,0,0,0,0,0,0
457,'2025/06/16 11:19:27:474',3,0.247582,0.064566,-0.089833,-0.087518,-0.12475,0.233277,0,-0.271001,0.017696,-0.004264,-0.075254,0.775517,0.63946,0.021258,0.755747,0.64919,0.017642,-0.017874,0,0.117757,0,0,0,0,0,1,0,0,0,0,0,0,0,0,0
458,'2025/06/16 11:19:27:478',3,0.247582,0.064566,-0.089833,-0.087518,-0.12475,0.233277,0,-0.271001,0.017696,-0.004264,-0.075254,0.775517,0.63946,0.021258,0.755747,0.64919,0.017642,-0.017874,0,0.117757,0,0,0,0,0,1,0,0,0,0,0,0,0,0,0
459,'2025/06/16 11:19:27:480',3,0.247582,0.064566,-0.089833,-0.087518,-0.12475,0.233277,0,-0.271001,0.017696,-0.004264,-0.075254,0.775517,0.63946,0.021258,0.755747,0.64919,0.017642,-0.017874,0,0.117757,0,0,0,0,0,1,0,0,0,0,0,0,0,0,0
460,'2025/06/16 11:19:27:484',3,0.247582,0.064566,-0.089833,-0.087518,-0.12475,0.233277,0,-0.271001,0.017696,-0.004264,-0.075254,0.775517,0.63946,0.021258,0.755747,0.64919,0.017642,-0.017874,0,0.117757,0,0,0,0,0,1,0,0,0,0,0,0,0,0,0
461,'2025/06/16 11:19:27:487',3,0.247582,0.064566,-0.089833,-0.087518,-0.12475,0.233277,0,-0.271001,0.017696,-0.004264,-0.075254,0.775517,0.63946,0.021258,0.755747,0.64919,0.017642,-0.017874,0,0.117757,0,0,0,0,0,1,0,0,0,0,0,0,0,0,0
462,'2025/06/16 11:19:27:489',3,0.247582,0.064566,-0.089833,-0.087518,-0.12475,0.233277,0,-0.271001,0.017696,-0.004264,-0.075254,0.775517,0.63946,0.021258,0.755747,0.64919,0.017642,-0.017874,0,0.117757,0,0,0,0,0,1,0,0,0,0,0,0,0,0,0
463,'2025/06/16 11:19:27:493',3,0.247582,0.064566,-0.089833,-0.087518,-0.12475,0.233277,0,-0.271001,0.017696,-0.004264,-0.075254,0.775517,0.63946,0.021258,0.755747,0.64919,0.017642,-0.017874,0,0.117757,0,0,0,0,0,1,0,0,0,0,0,0,0,0,0
464,'2025/06/16 11:19:27:496',3,0.247582,0.064566,-0.089833,-0.087518,-0.12475,0.233277,0,-0.271001,0.017696,-0.004264,-0.075254,0.775517,0.63946,0.021258,0.755747,0.64919,0.017642,-0.017874,0,0.117757,0,0,0,0,0,1,0,0,0,0,0,0,0,0,0
465,'2025/06/16 11:19:27:499',3,0.247582,0.064566,-0.089833,-0.087518,-0.12475,0.233277,0,-0.271001,0.017696,-0.004264,-0.075254,0.775517,0.63946,0.021258,0.755747,0.64919,0.017642,-0.017874,0,0.117757,0,0,0,0,0,1,0,0,0,0,0,0,0,0,0
466,'2025/06/16 11:19:27:502',3,0.247582,0.064566,-0.089833,-0.087518,-0.12475,0.233277,0,-0.271001,0.017696,-0.004264,-0.075254,0.775517,0.63946,0.021258,0.755747,0.64919,0.017642,-0.017874,0,0.117757,0,0,0,0,0,1,0,0,0,0,0,0,0,0,0
467,'2025/06/16 11:19:27:506',3,0.247582,0.064566,-0.089833,-0.087518,-0.12475,0.233277,0,-0.271001,0.017696,-0.004264,-0.075254,0.775517,0.63946,0.021258,0.755747,0.64919,0.017642,-0.017874,0,0.117757,0,0,0,0,0,1,0,0,0,0,0,0,0,0,0
468,'2025/06/16 11:19:27:508',3,0.247582,0.064566,-0.089833,-0.087518,-0.12475,0.233277,0,-0.271001,0.017696,-0.004264,-0.075254,0.775517,0.63946,0.021258,0.755747,0.64919,0.017642,-0.017874,0,0.117757,0,0,0,0,0,1,0,0,0,0,0,0,0,0,0
469,'2025/06/16 11:19:27:512',3,0.247582,0.064566,-0.089833,-0.087518,-0.12475,0.233277,0,-0.271001,0.017696,-0.004264,-0.075254,0.775517,0.63946,0.021258,0.755747,0.64919,0.017642,-0.017874,0,0.117757,0,0,0,0,0,1,0,0,0,0,0,0,0,0,0
470,'2025/06/16 11:19:27:515',3,0.247582,0.064566,-0.089833,-0.087518,-0.12475,0.233277,0,-0.271001,0.017696,-0.004264,-0.075254,0.775517,0.63946,0.021258,0.755747,0.64919,0.017642,-0.017874,0,0.117757,0,0,0,0,0,1,0,0,0,0,0,0,0,0,0
471,'2025/06/16 11:19:27:518',3,0.247582,0.064566,-0.089833,-0.087518,-0.12475,0.233277,0,-0.271001,0.017696,-0.004264,-0.075254,0.775517,0.63946,0.021258,0.755747,0.64919,0.017642,-0.017874,0,0.117757,0,0,0,0,0,1,0,0,0,0,0,0,0,0,0
472,'2025/06/16 11:19:27:521',3,0.247582,0.064566,-0.089833,-0.087518,-0.12475,0.233277,0,-0.271001,0.017696,-0.004264,-0.075254,0.775517,0.63946,0.021258,0.755747,0.64919,0.017642,-0.017874,0,0.117757,0,0,0,0,0,1,0,0,0,0,0,0,0,0,0
473,'2025/06/16 11:19:27:523',3,0.247582,0.064566,-0.089833,-0.087518,-0.12475,0.233277,0,-0.271001,0.017696,-0.004264,-0.075254,0.775517,0.63946,0.021258,0.755747,0.64919,0.017642,-0.017874,0,0.117757,0,0,0,0,0,1,0,0,0,0,0,0,0,0,0
474,'2025/06/16 11:19:27:528',3,0.247582,0.064566,-0.089833,-0.087518,-0.12475,0.233277,0,-0.271001,0.017696,-0.004264,-0.075254,0.775517,0.63946,0.021258,0.755747,0.64919,0.017642,-0.017874,0,0.117757,0,0,0,0,0,1,0,0,0,0,0,0,0,0,0
475,'2025/06/16 11:19:27:530',3,0.247582,0.064566,-0.089833,-0.087518,-0.12475,0.233277,0,-0.271001,0.017696,-0.004264,-0.075254,0.775517,0.63946,0.021258,0.755747,0.64919,0.017642,-0.017874,0,0.117757,0,0,0,0,0,1,0,0,0,0,0,0,0,0,0
476,'2025/06/16 11:19:27:533',3,0.247582,0.064566,-0.089833,-0.087518,-0.12475,0.233277,0,-0.271001,0.017696,-0.004264,-0.075254,0.775517,0.63946,0.021258,0.755747,0.64919,0.017642,-0.017874,0,0.117757,0,0,0,0,0,1,0,0,0,0,0,0,0,0,0
477,'2025/06/16 11:19:27:537',3,0.247582,0.064566,-0.089833,-0.087518,-0.12475,0.233277,0,-0.271001,0.017696,-0.004264,-0.075254,0.775517,0.63946,0.021258,0.755747,0.64919,0.017642,-0.017874,0,0.117757,0,0,0,0,0,1,0,0,0,0,0,0,0,0,0
478,'2025/06/16 11:19:27:540',3,0.247582,0.064566,-0.089833,-0.087518,-0.12475,0.233277,0,-0.271001,0.017696,-0.004264,-0.075254,0.775517,0.63946,0.021258,0.755747,0.64919,0.017642,-0.017874,0,0.117757,0,0,0,0,0,1,0,0,0,0,0,0,0,0,0
479,'2025/06/16 11:19:27:543',3,0.247582,0.064566,-0.089833,-0.087518,-0.12475,0.233277,0,-0.271001,0.017696,-0.004264,-0.075254,0.775517,0.63946,0.021258,0.755747,0.64919,0.017642,-0.017874,0,0.117757,0,0,0,0,0,1,0,0,0,0,0,0,0,0,0
480,'2025/06/16 11:19:27:546',3,0.247582,0.064566,-0.089833,-0.087518,-0.12475,0.233277,0,-0.271001,0.017696,-0.004264,-0.075254,0.775517,0.63946,0.021258,0.755747,0.64919,0.017642,-0.017874,0,0.117757,0,0,0,0,0,1,0,0,0,0,0,0,0,0,0
481,'2025/06/16 11:19:27:549',3,0.247582,0.064566,-0.089833,-0.087518,-0.12475,0.233277,0,-0.271001,0.017696,-0.004264,-0.075254,0.775517,0.63946,0.021258,0.755747,0.64919,0.017642,-0.017874,0,0.117757,0,0,0,0,0,1,0,0,0,0,0,0,0,0,0
482,'2025/06/16 11:19:27:552',3,0.247582,0.064566,-0.089833,-0.087518,-0.12475,0.233277,0,-0.271001,0.017696,-0.004264,-0.075254,0.775517,0.63946,0.021258,0.755747,0.64919,0.017642,-0.017874,0,0.117757,0,0,0,0,0,1,0,0,0,0,0,0,0,0,0
483,'2025/06/16 11:19:27:556',3,0.247582,0.064566,-0.089833,-0.087518,-0.12475,0.233277,0,-0.271001,0.017696,-0.004264,-0.075254,0.775517,0.63946,0.021258,0.755747,0.64919,0.017642,-0.017874,0,0.117757,0,0,0,0,0,1,0,0,0,0,0,0,0,0,0
484,'2025/06/16 11:19:27:558',3,0.247582,0.064566,-0.089833,-0.087518,-0.12475,0.233277,0,-0.271001,0.017696,-0.004264,-0.075254,0.775517,0.63946,0.021258,0.755747,0.64919,0.017642,-0.017874,0,0.117757,0,0,0,0,0,1,0,0,0,0,0,0,0,0,0
485,'2025/06/16 11:19:27:561',3,0.247582,0.064566,-0.089833,-0.087518,-0.12475,0.233277,0,-0.271001,0.017696,-0.004264,-0.075254,0.775517,0.63946,0.021258,0.755747,0.64919,0.017642,-0.017874,0,0.117757,0,0,0,0,0,1,0,0,0,0,0,0,0,0,0
486,'2025/06/16 11:19:27:565',3,0.247582,0.064566,-0.089833,-0.087518,-0.12475,0.233277,0,-0.271001,0.017696,-0.004264,-0.075254,0.775517,0.63946,0.021258,0.755747,0.64919,0.017642,-0.017874,0,0.117757,0,0,0,0,0,1,0,0,0,0,0,0,0,0,0
487,'2025/06/16 11:19:27:568',3,0.247582,0.064566,-0.089833,-0.087518,-0.12475,0.233277,0,-0.271001,0.017696,-0.004264,-0.075254,0.775517,0.63946,0.021258,0.755747,0.64919,0.017642,-0.017874,0,0.117757,0,0,0,0,0,1,0,0,0,0,0,0,0,0,0
488,'2025/06/16 11:19:27:571',3,0.247582,0.064566,-0.089833,-0.087518,-0.12475,0.233277,0,-0.271001,0.017696,-0.004264,-0.075254,0.775517,0.63946,0.021258,0.755747,0.64919,0.017642,-0.017874,0,0.117757,0,0,0,0,0,1,0,0,0,0,0,0,0,0,0
489,'2025/06/16 11:19:27:574',3,0.247582,0.064566,-0.089833,-0.087518,-0.12475,0.233277,0,-0.271001,0.017696,-0.004264,-0.075254,0.775517,0.63946,0.021258,0.755747,0.64919,0.017642,-0.017874,0,0.117757,0,0,0,0,0,1,0,0,0,0,0,0,0,0,0
490,'2025/06/16 11:19:27:577',3,0.247582,0.064566,-0.089833,-0.087518,-0.12475,0.233277,0,-0.271001,0.017696,-0.004264,-0.075254,0.775517,0.63946,0.021258,0.755747,0.64919,0.017642,-0.017874,0,0.117757,0,0,0,0,0,1,0,0,0,0,0,0,0,0,0
491,'2025/06/16 11:19:27:581',3,0.247582,0.064566,-0.089833,-0.087518,-0.12475,0.233277,0,-0.271001,0.017696,-0.004264,-0.075254,0.775517,0.63946,0.021258,0.755747,0.64919,0.017642,-0.017874,0,0.117757,0,0,0,0,0,1,0,0,0,0,0,0,0,0,0
492,'2025/06/16 11:19:27:584',3,0.247582,0.064566,-0.089833,-0.087518,-0.12475,0.233277,0,-0.271001,0.017696,-0.004264,-0.075254,0.775517,0.63946,0.021258,0.755747,0.64919,0.017642,-0.017874,0,0.117757,0,0,0,0,0,1,0,0,0,0,0,0,0,0,0
493,'2025/06/16 11:19:27:587',3,0.247582,0.064566,-0.089833,-0.087518,-0.12475,0.233277,0,-0.271001,0.017696,-0.004264,-0.075254,0.775517,0.63946,0.021258,0.755747,0.64919,0.017642,-0.017874,0,0.117757,0,0,0,0,0,1,0,0,0,0,0,0,0,0,0
494,'2025/06/16 11:19:27:590',3,0.247582,0.064566,-0.089833,-0.087518,-0.12475,0.233277,0,-0.271001,0.017696,-0.004264,-0.075254,0.775517,0.63946,0.021258,0.755747,0.64919,0.017642,-0.017874,0,0.117757,0,0,0,0,0,1,0,0,0,0,0,0,0,0,0
495,'2025/06/16 11:19:27:593',3,0.247582,0.064566,-0.089833,-0.087518,-0.12475,0.233277,0,-0.271001,0.017696,-0.004264,-0.075254,0.775517,0.63946,0.021258,0.755747,0.64919,0.017642,-0.017874,0,0.117757,0,0,0,0,0,1,0,0,0,0,0,0,0,0,0
496,'2025/06/16 11:19:27:596',3,0.247582,0.064566,-0.089833,-0.087518,-0.12475,0.233277,0,-0.271001,0.017696,-0.004264,-0.075254,0.775517,0.63946,0.021258,0.755747,0.64919,0.017642,-0.017874,0,0.117757,0,0,0,0,0,1,0,0,0,0,0,0,0,0,0
497,'2025/06/16 11:19:27:599',3,0.247582,0.064566,-0.089833,-0.087518,-0.12475,0.233277,0,-0.271001,0.017696,-0.004264,-0.075254,0.775517,0.63946,0.021258,0.755747,0.64919,0.017642,-0.017874,0,0.117757,0,0,0,0,0,1,0,0,0,0,0,0,0,0,0
498,'2025/06/16 11:19:27:603',3,0.247582,0.064566,-0.089833,-0.087518,-0.12475,0.233277,0,-0.271001,0.017696,-0.004264,-0.075254,0.775517,0.63946,0.021258,0.755747,0.64919,0.017642,-0.017874,0,0.117757,0,0,0,0,0,1,0,0,0,0,0,0,0,0,0
499,'2025/06/16 11:19:27:606',3,0.247582,0.064566,-0.089833,-0.087518,-0.12475,0.233277,0,-0.271001,0.017696,-0.004264,-0.075254,0.775517,0.63946,0.021258,0.755747,0.64919,0.017642,-0.017874,0,0.117757,0,0,0,0,0,1,0,0,0,0,0,0,0,0,0
500,'2025/06/16 11:19:27:609',3,0.247582,0.064566,-0.089833,-0.087518,-0.12475,0.233277,0,-0.271001,0.017696,-0.004264,-0.075254,0.775517,0.63946,0.021258,0.755747,0.64919,0.017642,-0.017874,0,0.117757,0,0,0,0,0,1,0,0,0,0,0,0,0,0,0
501,'2025/06/16 11:19:27:612',3,0.247582,0.064566,-0.089833,-0.087518,-0.12475,0.233277,0,-0.271001,0.017696,-0.004264,-0.075254,0.775517,0.63946,0.021258,0.755747,0.64919,0.017642,-0.017874,0,0.117757,0,0,0,0,0,1,0,0,0,0,0,0,0,0,0
502,'2025/06/16 11:19:27:614',3,0.247582,0.064566,-0.089833,-0.087518,-0.12475,0.233277,0,-0.271001,0.017696,-0.004264,-0.075254,0.775517,0.63946,0.021258,0.755747,0.64919,0.017642,-0.017874,0,0.117757,0,0,0,0,0,1,0,0,0,0,0,0,0,0,0
503,'2025/06/16 11:19:27:618',3,0.247582,0.064566,-0.089833,-0.087518,-0.12475,0.233277,0,-0.271001,0.017696,-0.004264,-0.075254,0.775517,0.63946,0.021258,0.755747,0.64919,0.017642,-0.017874,0,0.117757,0,0,0,0,0,1,0,0,0,0,0,0,0,0,0
504,'2025/06/16 11:19:27:621',3,0.247582,0.064566,-0.089833,-0.087518,-0.12475,0.233277,0,-0.271001,0.017696,-0.004264,-0.075254,0.775517,0.63946,0.021258,0.755747,0.64919,0.017642,-0.017874,0,0.117757,0,0,0,0,0,1,0,0,0,0,0,0,0,0,0
505,'2025/06/16 11:19:27:623',3,0.247582,0.064566,-0.089833,-0.087518,-0.12475,0.233277,0,-0.271001,0.017696,-0.004264,-0.075254,0.775517,0.63946,0.021258,0.755747,0.64919,0.017642,-0.017874,0,0.117757,0,0,0,0,0,1,0,0,0,0,0,0,0,0,0
506,'2025/06/16 11:19:27:628',3,0.247582,0.064566,-0.089833,-0.087518,-0.12475,0.233277,0,-0.271001,0.017696,-0.004264,-0.075254,0.775517,0.63946,0.021258,0.755747,0.64919,0.017642,-0.017874,0,0.117757,0,0,0,0,0,1,0,0,0,0,0,0,0,0,0
507,'2025/06/16 11:19:27:631',3,0.247582,0.064566,-0.089833,-0.087518,-0.12475,0.233277,0,-0.271001,0.017696,-0.004264,-0.075254,0.775517,0.63946,0.021258,0.755747,0.64919,0.017642,-0.017874,0,0.117757,0,0,0,0,0,1,0,0,0,0,0,0,0,0,0
508,'2025/06/16 11:19:27:634',3,0.247582,0.064566,-0.089833,-0.087518,-0.12475,0.233277,0,-0.271001,0.017696,-0.004264,-0.075254,0.775517,0.63946,0.021258,0.755747,0.64919,0.017642,-0.017874,0,0.117757,0,0,0,0,0,1,0,0,0,0,0,0,0,0,0
509,'2025/06/16 11:19:27:638',3,0.247582,0.064566,-0.089833,-0.087518,-0.12475,0.233277,0,-0.271001,0.017696,-0.004264,-0.075254,0.775517,0.63946,0.021258,0.755747,0.64919,0.017642,-0.017874,0,0.117757,0,0,0,0,0,1,0,0,0,0,0,0,0,0,0
510,'2025/06/16 11:19:27:641',3,0.247582,0.064566,-0.089833,-0.087518,-0.12475,0.233277,0,-0.271001,0.017696,-0.004264,-0.075254,0.775517,0.63946,0.021258,0.755747,0.64919,0.017642,-0.017874,0,0.117757,0,0,0,0,0,1,0,0,0,0,0,0,0,0,0
511,'2025/06/16 11:19:27:644',3,0.247582,0.064566,-0.089833,-0.087518,-0.12475,0.233277,0,-0.271001,0.017696,-0.004264,-0.075254,0.775517,0.63946,0.021258,0.755747,0.64919,0.017642,-0.017874,0,0.117757,0,0,0,0,0,1,0,0,0,0,0,0,0,0,0
512,'2025/06/16 11:19:27:647',3,0.247582,0.064566,-0.089833,-0.087518,-0.12475,0.233277,0,-0.271001,0.017696,-0.004264,-0.075254,0.775517,0.63946,0.021258,0.755747,0.64919,0.017642,-0.017874,0,0.117757,0,0,0,0,0,1,0,0,0,0,0,0,0,0,0
513,'2025/06/16 11:19:27:650',3,0.247582,0.064566,-0.089833,-0.087518,-0.12475,0.233277,0,-0.271001,0.017696,-0.004264,-0.075254,0.775517,0.63946,0.021258,0.755747,0.64919,0.017642,-0.017874,0,0.117757,0,0,0,0,0,1,0,0,0,0,0,0,0,0,0
514,'2025/06/16 11:19:27:653',3,0.247582,0.064566,-0.089833,-0.087518,-0.12475,0.233277,0,-0.271001,0.017696,-0.004264,-0.075254,0.775517,0.63946,0.021258,0.755747,0.64919,0.017642,-0.017874,0,0.117757,0,0,0,0,0,1,0,0,0,0,0,0,0,0,0
515,'2025/06/16 11:19:27:656',3,0.247582,0.064566,-0.089833,-0.087518,-0.12475,0.233277,0,-0.271001,0.017696,-0.004264,-0.075254,0.775517,0.63946,0.021258,0.755747,0.64919,0.017642,-0.017874,0,0.117757,0,0,0,0,0,1,0,0,0,0,0,0,0,0,0
516,'2025/06/16 11:19:27:659',3,0.247582,0.064566,-0.089833,-0.087518,-0.12475,0.233277,0,-0.271001,0.017696,-0.004264,-0.075254,0.775517,0.63946,0.021258,0.755747,0.64919,0.017642,-0.017874,0,0.117757,0,0,0,0,0,1,0,0,0,0,0,0,0,0,0
517,'2025/06/16 11:19:27:663',3,0.247582,0.064566,-0.089833,-0.087518,-0.12475,0.233277,0,-0.271001,0.017696,-0.004264,-0.075254,0.775517,0.63946,0.021258,0.755747,0.64919,0.017642,-0.017874,0,0.117757,0,0,0,0,0,1,0,0,0,0,0,0,0,0,0
518,'2025/06/16 11:19:27:666',3,0.247582,0.064566,-0.089833,-0.087518,-0.12475,0.233277,0,-0.271001,0.017696,-0.004264,-0.075254,0.775517,0.63946,0.021258,0.755747,0.64919,0.017642,-0.017874,0,0.117757,0,0,0,0,0,1,0,0,0,0,0,0,0,0,0
519,'2025/06/16 11:19:27:669',3,0.247582,0.064566,-0.089833,-0.087518,-0.12475,0.233277,0,-0.271001,0.017696,-0.004264,-0.075254,0.775517,0.63946,0.021258,0.755747,0.64919,0.017642,-0.017874,0,0.117757,0,0,0,0,0,1,0,0,0,0,0,0,0,0,0
520,'2025/06/16 11:19:27:672',3,0.247582,0.064566,-0.089833,-0.087518,-0.12475,0.233277,0,-0.271001,0.017696,-0.004264,-0.075254,0.775517,0.63946,0.021258,0.755747,0.64919,0.017642,-0.017874,0,0.117757,0,0,0,0,0,1,0,0,0,0,0,0,0,0,0
521,'2025/06/16 11:19:27:674',3,0.247582,0.064566,-0.089833,-0.087518,-0.12475,0.233277,0,-0.271001,0.017696,-0.004264,-0.075254,0.775517,0.63946,0.021258,0.755747,0.64919,0.017642,-0.017874,0,0.117757,0,0,0,0,0,1,0,0,0,0,0,0,0,0,0
522,'2025/06/16 11:19:27:678',3,0.247582,0.064566,-0.089833,-0.087518,-0.12475,0.233277,0,-0.271001,0.017696,-0.004264,-0.075254,0.775517,0.63946,0.021258,0.755747,0.64919,0.017642,-0.017874,0,0.117757,0,0,0,0,0,1,0,0,0,0,0,0,0,0,0
523,'2025/06/16 11:19:27:681',3,0.247582,0.064566,-0.089833,-0.087518,-0.12475,0.233277,0,-0.271001,0.017696,-0.004264,-0.075254,0.775517,0.63946,0.021258,0.755747,0.64919,0.017642,-0.017874,0,0.117757,0,0,0,0,0,1,0,0,0,0,0,0,0,0,0
524,'2025/06/16 11:19:27:685',3,0.247582,0.064566,-0.089833,-0.087518,-0.12475,0.233277,0,-0.271001,0.017696,-0.004264,-0.075254,0.775517,0.63946,0.021258,0.755747,0.64919,0.017642,-0.017874,0,0.117757,0,0,0,0,0,1,0,0,0,0,0,0,0,0,0
525,'2025/06/16 11:19:27:688',3,0.247582,0.064566,-0.089833,-0.087518,-0.12475,0.233277,0,-0.271001,0.017696,-0.004264,-0.075254,0.775517,0.63946,0.021258,0.755747,0.64919,0.017642,-0.017874,0,0.117757,0,0,0,0,0,1,0,0,0,0,0,0,0,0,0
526,'2025/06/16 11:19:27:691',3,0.247582,0.064566,-0.089833,-0.087518,-0.12475,0.233277,0,-0.271001,0.017696,-0.004264,-0.075254,0.775517,0.63946,0.021258,0.755747,0.64919,0.017642,-0.017874,0,0.117757,0,0,0,0,0,1,0,0,0,0,0,0,0,0,0
527,'2025/06/16 11:19:27:694',3,0.247582,0.064566,-0.089833,-0.087518,-0.12475,0.233277,0,-0.271001,0.017696,-0.004264,-0.075254,0.775517,0.63946,0.021258,0.755747,0.64919,0.017642,-0.017874,0,0.117757,0,0,0,0,0,1,0,0,0,0,0,0,0,0,0
528,'2025/06/16 11:19:27:697',3,0.247582,0.064566,-0.089833,-0.087518,-0.12475,0.233277,0,-0.271001,0.017696,-0.004264,-0.075254,0.775517,0.63946,0.021258,0.755747,0.64919,0.017642,-0.017874,0,0.117757,0,0,0,0,0,1,0,0,0,0,0,0,0,0,0
529,'2025/06/16 11:19:27:700',3,0.247582,0.064566,-0.089833,-0.087518,-0.12475,0.233277,0,-0.271001,0.017696,-0.004264,-0.075254,0.775517,0.63946,0.021258,0.755747,0.64919,0.017642,-0.017874,0,0.117757,0,0,0,0,0,1,0,0,0,0,0,0,0,0,0
530,'2025/06/16 11:19:27:704',3,0.247582,0.064566,-0.089833,-0.087518,-0.12475,0.233277,0,-0.271001,0.017696,-0.004264,-0.075254,0.775517,0.63946,0.021258,0.755747,0.64919,0.017642,-0.017874,0,0.117757,0,0,0,0,0,1,0,0,0,0,0,0,0,0,0
531,'2025/06/16 11:19:27:707',3,0.247582,0.064566,-0.089833,-0.087518,-0.12475,0.233277,0,-0.271001,0.017696,-0.004264,-0.075254,0.775517,0.63946,0.021258,0.755747,0.64919,0.017642,-0.017874,0,0.117757,0,0,0,0,0,1,0,0,0,0,0,0,0,0,0
532,'2025/06/16 11:19:27:711',3,0.247582,0.064566,-0.089833,-0.087518,-0.12475,0.233277,0,-0.271001,0.017696,-0.004264,-0.075254,0.775517,0.63946,0.021258,0.755747,0.64919,0.017642,-0.017874,0,0.117757,0,0,0,0,0,1,0,0,0,0,0,0,0,0,0
533,'2025/06/16 11:19:27:714',3,0.247582,0.064566,-0.089833,-0.087518,-0.12475,0.233277,0,-0.271001,0.017696,-0.004264,-0.075254,0.775517,0.63946,0.021258,0.755747,0.64919,0.017642,-0.017874,0,0.117757,0,0,0,0,0,1,0,0,0,0,0,0,0,0,0
534,'2025/06/16 11:19:27:717',3,0.247582,0.064566,-0.089833,-0.087518,-0.12475,0.233277,0,-0.271001,0.017696,-0.004264,-0.075254,0.775517,0.63946,0.021258,0.755747,0.64919,0.017642,-0.017874,0,0.117757,0,0,0,0,0,1,0,0,0,0,0,0,0,0,0
535,'2025/06/16 11:19:27:720',3,0.247582,0.064566,-0.089833,-0.087518,-0.12475,0.233277,0,-0.271001,0.017696,-0.004264,-0.075254,0.775517,0.63946,0.021258,0.755747,0.64919,0.017642,-0.017874,0,0.117757,0,0,0,0,0,1,0,0,0,0,0,0,0,0,0
536,'2025/06/16 11:19:27:722',3,0.247582,0.064566,-0.089833,-0.087518,-0.12475,0.233277,0,-0.271001,0.017696,-0.004264,-0.075254,0.775517,0.63946,0.021258,0.755747,0.64919,0.017642,-0.017874,0,0.117757,0,0,0,0,0,1,0,0,0,0,0,0,0,0,0
537,'2025/06/16 11:19:27:726',3,0.247582,0.064566,-0.089833,-0.087518,-0.12475,0.233277,0,-0.271001,0.017696,-0.004264,-0.075254,0.775517,0.63946,0.021258,0.755747,0.64919,0.017642,-0.017874,0,0.117757,0,0,0,0,0,1,0,0,0,0,0,0,0,0,0
538,'2025/06/17 09:35:28:382',4,0.460592,-0.037384,-0.061326,-0.059641,-0.082626,0.348631,0,-0.490639,0.570649,0.80103,0.000872,0.630196,0.781558,-0.000677,0.57328,0.84234,-0.003608,0.739026,0.742479,0.006678,0,0,0,0,0,0,1,0,0,0,0,0,0,0,0
539,'2025/06/17 09:35:28:393',4,0.460592,-0.037384,-0.061326,-0.059641,-0.082626,0.348631,0,-0.490639,0.570649,0.80103,0.000872,0.630196,0.781558,-0.000677,0.57328,0.84234,-0.003608,0.739026,0.742479,0.006678,0,0,0,0,0,0,1,0,0,0,0,0,0,0,0
540,'2025/06/17 09:35:28:397',4,0.460592,-0.037384,-0.061326,-0.059641,-0.082626,0.348631,0,-0.490639,0.570649,0.80103,0.000872,0.630196,0.781558,-0.000677,0.57328,0.84234,-0.003608,0.739026,0.742479,0.006678,0,0,0,0,0,0,1,0,0,0,0,0,0,0,0
541,'2025/06/17 09:35:28:407',4,0.460592,-0.037384,-0.061326,-0.059641,-0.082626,0.348631,0,-0.490639,0.570649,0.80103,0.000872,0.630196,0.781558,-0.000677,0.57328,0.84234,-0.003608,0.739026,0.742479,0.006678,0,0,0,0,0,0,1,0,0,0,0,0,0,0,0
542,'2025/06/17 09:35:28:415',4,0.460592,-0.037384,-0.061326,-0.059641,-0.082626,0.348631,0,-0.490639,0.570649,0.80103,0.000872,0.630196,0.781558,-0.000677,0.57328,0.84234,-0.003608,0.739026,0.742479,0.006678,0,0,0,0,0,0,1,0,0,0,0,0,0,0,0
543,'2025/06/17 09:35:28:424',4,0.460592,-0.037384,-0.061326,-0.059641,-0.082626,0.348631,0,-0.490639,0.570649,0.80103,0.000872,0.630196,0.781558,-0.000677,0.57328,0.84234,-0.003608,0.739026,0.742479,0.006678,0,0,0,0,0,0,1,0,0,0,0,0,0,0,0
544,'2025/06/17 09:35:28:431',4,0.460592,-0.037384,-0.061326,-0.059641,-0.082626,0.348631,0,-0.490639,0.570649,0.80103,0.000872,0.630196,0.781558,-0.000677,0.57328,0.84234,-0.003608,0.739026,0.742479,0.006678,0,0,0,0,0,0,1,0,0,0,0,0,0,0,0
545,'2025/06/17 09:35:28:439',4,0.460592,-0.037384,-0.061326,-0.059641,-0.082626,0.348631,0,-0.490639,0.570649,0.80103,0.000872,0.630196,0.781558,-0.000677,0.57328,0.84234,-0.003608,0.739026,0.742479,0.006678,0,0,0,0,0,0,1,0,0,0,0,0,0,0,0
546,'2025/06/17 09:35:28:448',4,0.460592,-0.037384,-0.061326,-0.059641,-0.082626,0.348631,0,-0.490639,0.570649,0.80103,0.000872,0.630196,0.781558,-0.000677,0.57328,0.84234,-0.003608,0.739026,0.742479,0.006678,0,0,0,0,0,0,1,0,0,0,0,0,0,0,0
547,'2025/06/17 09:35:28:455',4,0.460592,-0.037384,-0.061326,-0.059641,-0.082626,0.348631,0,-0.490639,0.570649,0.80103,0.000872,0.630196,0.781558,-0.000677,0.57328,0.84234,-0.003608,0.739026,0.742479,0.006678,0,0,0,0,0,0,1,0,0,0,0,0,0,0,0
548,'2025/06/17 09:35:28:463',4,0.460592,-0.037384,-0.061326,-0.059641,-0.082626,0.348631,0,-0.490639,0.570649,0.80103,0.000872,0.630196,0.781558,-0.000677,0.57328,0.84234,-0.003608,0.739026,0.742479,0.006678,0,0,0,0,0,0,1,0,0,0,0,0,0,0,0
549,'2025/06/17 09:35:28:469',4,0.460592,-0.037384,-0.061326,-0.059641,-0.082626,0.348631,0,-0.490639,0.570649,0.80103,0.000872,0.630196,0.781558,-0.000677,0.57328,0.84234,-0.003608,0.739026,0.742479,0.006678,0,0,0,0,0,0,1,0,0,0,0,0,0,0,0
550,'2025/06/17 09:35:28:476',4,0.460592,-0.037384,-0.061326,-0.059641,-0.082626,0.348631,0,-0.490639,0.570649,0.80103,0.000872,0.630196,0.781558,-0.000677,0.57328,0.84234,-0.003608,0.739026,0.742479,0.006678,0,0,0,0,0,0,1,0,0,0,0,0,0,0,0
551,'2025/06/17 09:35:28:485',4,0.460592,-0.037384,-0.061326,-0.059641,-0.082626,0.348631,0,-0.490639,0.570649,0.80103,0.000872,0.630196,0.781558,-0.000677,0.57328,0.84234,-0.003608,0.739026,0.742479,0.006678,0,0,0,0,0,0,1,0,0,0,0,0,0,0,0
552,'2025/06/17 09:35:28:493',4,0.460592,-0.037384,-0.061326,-0.059641,-0.082626,0.348631,0,-0.490639,0.570649,0.80103,0.000872,0.630196,0.781558,-0.000677,0.57328,0.84234,-0.003608,0.739026,0.742479,0.006678,0,0,0,0,0,0,1,0,0,0,0,0,0,0,0
553,'2025/06/17 09:35:28:501',4,0.460592,-0.037384,-0.061326,-0.059641,-0.082626,0.348631,0,-0.490639,0.570649,0.80103,0.000872,0.630196,0.781558,-0.000677,0.57328,0.84234,-0.003608,0.739026,0.742479,0.006678,0,0,0,0,0,0,1,0,0,0,0,0,0,0,0
554,'2025/06/17 09:35:28:509',4,0.460592,-0.037384,-0.061326,-0.059641,-0.082626,0.348631,0,-0.490639,0.570649,0.80103,0.000872,0.630196,0.781558,-0.000677,0.57328,0.84234,-0.003608,0.739026,0.742479,0.006678,0,0,0,0,0,0,1,0,0,0,0,0,0,0,0
555,'2025/06/17 09:35:28:518',4,0.460592,-0.037384,-0.061326,-0.059641,-0.082626,0.348631,0,-0.490639,0.570649,0.80103,0.000872,0.630196,0.781558,-0.000677,0.57328,0.84234,-0.003608,0.739026,0.742479,0.006678,0,0,0,0,0,0,1,0,0,0,0,0,0,0,0
556,'2025/06/17 09:35:28:526',4,0.460592,-0.037384,-0.061326,-0.059641,-0.082626,0.348631,0,-0.490639,0.570649,0.80103,0.000872,0.630196,0.781558,-0.000677,0.57328,0.84234,-0.003608,0.739026,0.742479,0.006678,0,0,0,0,0,0,1,0,0,0,0,0,0,0,0
557,'2025/06/17 09:35:28:533',4,0.460592,-0.037384,-0.061326,-0.059641,-0.082626,0.348631,0,-0.490639,0.570649,0.80103,0.000872,0.630196,0.781558,-0.000677,0.57328,0.84234,-0.003608,0.739026,0.742479,0.006678,0,0,0,0,0,0,1,0,0,0,0,0,0,0,0
558,'2025/06/17 09:35:28:543',4,0.460592,-0.037384,-0.061326,-0.059641,-0.082626,0.348631,0,-0.490639,0.570649,0.80103,0.000872,0.630196,0.781558,-0.000677,0.57328,0.84234,-0.003608,0.739026,0.742479,0.006678,0,0,0,0,0,0,1,0,0,0,0,0,0,0,0
559,'2025/06/17 09:35:28:552',4,0.460592,-0.037384,-0.061326,-0.059641,-0.082626,0.348631,0,-0.490639,0.570649,0.80103,0.000872,0.630196,0.781558,-0.000677,0.57328,0.84234,-0.003608,0.739026,0.742479,0.006678,0,0,0,0,0,0,1,0,0,0,0,0,0,0,0
560,'2025/06/17 09:35:28:560',4,0.460592,-0.037384,-0.061326,-0.059641,-0.082626,0.348631,0,-0.490639,0.570649,0.80103,0.000872,0.630196,0.781558,-0.000677,0.57328,0.84234,-0.003608,0.739026,0.742479,0.006678,0,0,0,0,0,0,1,0,0,0,0,0,0,0,0
561,'2025/06/17 09:35:28:568',4,0.460592,-0.037384,-0.061326,-0.059641,-0.082626,0.348631,0,-0.490639,0.570649,0.80103,0.000872,0.630196,0.781558,-0.000677,0.57328,0.84234,-0.003608,0.739026,0.742479,0.006678,0,0,0,0,0,0,1,0,0,0,0,0,0,0,0
562,'2025/06/17 09:35:28:575',4,0.460592,-0.037384,-0.061326,-0.059641,-0.082626,0.348631,0,-0.490639,0.570649,0.80103,0.000872,0.630196,0.781558,-0.000677,0.57328,0.84234,-0.003608,0.739026,0.742479,0.006678,0,0,0,0,0,0,1,0,0,0,0,0,0,0,0
563,'2025/06/17 09:35:28:583',4,0.460592,-0.037384,-0.061326,-0.059641,-0.082626,0.348631,0,-0.490639,0.570649,0.80103,0.000872,0.630196,0.781558,-0.000677,0.57328,0.84234,-0.003608,0.739026,0.742479,0.006678,0,0,0,0,0,0,1,0,0,0,0,0,0,0,0
564,'2025/06/17 09:35:28:591',4,0.460592,-0.037384,-0.061326,-0.059641,-0.082626,0.348631,0,-0.490639,0.570649,0.80103,0.000872,0.630196,0.781558,-0.000677,0.57328,0.84234,-0.003608,0.739026,0.742479,0.006678,0,0,0,0,0,0,1,0,0,0,0,0,0,0,0
565,'2025/06/17 09:35:28:600',4,0.460592,-0.037384,-0.061326,-0.059641,-0.082626,0.348631,0,-0.490639,0.570649,0.80103,0.000872,0.630196,0.781558,-0.000677,0.57328,0.84234,-0.003608,0.739026,0.742479,0.006678,0,0,0,0,0,0,1,0,0,0,0,0,0,0,0
566,'2025/06/17 09:35:28:608',4,0.460592,-0.037384,-0.061326,-0.059641,-0.082626,0.348631,0,-0.490639,0.570649,0.80103,0.000872,0.630196,0.781558,-0.000677,0.57328,0.84234,-0.003608,0.739026,0.742479,0.006678,0,0,0,0,0,0,1,0,0,0,0,0,0,0,0
567,'2025/06/17 09:35:28:615',4,0.460592,-0.037384,-0.061326,-0.059641,-0.082626,0.348631,0,-0.490639,0.570649,0.80103,0.000872,0.630196,0.781558,-0.000677,0.57328,0.84234,-0.003608,0.739026,0.742479,0.006678,0,0,0,0,0,0,1,0,0,0,0,0,0,0,0
568,'2025/06/17 09:35:28:623',4,0.460592,-0.037384,-0.061326,-0.059641,-0.082626,0.348631,0,-0.490639,0.570649,0.80103,0.000872,0.630196,0.781558,-0.000677,0.57328,0.84234,-0.003608,0.739026,0.742479,0.006678,0,0,0,0,0,0,1,0,0,0,0,0,0,0,0
569,'2025/06/17 09:35:28:630',4,0.460592,-0.037384,-0.061326,-0.059641,-0.082626,0.348631,0,-0.490639,0.570649,0.80103,0.000872,0.630196,0.781558,-0.000677,0.57328,0.84234,-0.003608,0.739026,0.742479,0.006678,0,0,0,0,0,0,1,0,0,0,0,0,0,0,0
570,'2025/06/17 09:35:28:638',4,0.460592,-0.037384,-0.061326,-0.059641,-0.082626,0.348631,0,-0.490639,0.570649,0.80103,0.000872,0.630196,0.781558,-0.000677,0.57328,0.84234,-0.003608,0.739026,0.742479,0.006678,0,0,0,0,0,0,1,0,0,0,0,0,0,0,0
571,'2025/06/17 09:35:28:648',4,0.460592,-0.037384,-0.061326,-0.059641,-0.082626,0.348631,0,-0.490639,0.570649,0.80103,0.000872,0.630196,0.781558,-0.000677,0.57328,0.84234,-0.003608,0.739026,0.742479,0.006678,0,0,0,0,0,0,1,0,0,0,0,0,0,0,0
572,'2025/06/17 09:35:28:655',4,0.460592,-0.037384,-0.061326,-0.059641,-0.082626,0.348631,0,-0.490639,0.570649,0.80103,0.000872,0.630196,0.781558,-0.000677,0.57328,0.84234,-0.003608,0.739026,0.742479,0.006678,0,0,0,0,0,0,1,0,0,0,0,0,0,0,0
573,'2025/06/17 09:35:28:662',4,0.460592,-0.037384,-0.061326,-0.059641,-0.082626,0.348631,0,-0.490639,0.570649,0.80103,0.000872,0.630196,0.781558,-0.000677,0.57328,0.84234,-0.003608,0.739026,0.742479,0.006678,0,0,0,0,0,0,1,0,0,0,0,0,0,0,0
574,'2025/06/17 09:35:28:669',4,0.460592,-0.037384,-0.061326,-0.059641,-0.082626,0.348631,0,-0.490639,0.570649,0.80103,0.000872,0.630196,0.781558,-0.000677,0.57328,0.84234,-0.003608,0.739026,0.742479,0.006678,0,0,0,0,0,0,1,0,0,0,0,0,0,0,0
575,'2025/06/17 09:35:28:678',4,0.460592,-0.037384,-0.061326,-0.059641,-0.082626,0.348631,0,-0.490639,0.570649,0.80103,0.000872,0.630196,0.781558,-0.000677,0.57328,0.84234,-0.003608,0.739026,0.742479,0.006678,0,0,0,0,0,0,1,0,0,0,0,0,0,0,0
576,'2025/06/17 09:35:28:687',4,0.460592,-0.037384,-0.061326,-0.059641,-0.082626,0.348631,0,-0.490639,0.570649,0.80103,0.000872,0.630196,0.781558,-0.000677,0.57328,0.84234,-0.003608,0.739026,0.742479,0.006678,0,0,0,0,0,0,1,0,0,0,0,0,0,0,0
577,'2025/06/17 09:35:28:695',4,0.460592,-0.037384,-0.061326,-0.059641,-0.082626,0.348631,0,-0.490639,0.570649,0.80103,0.000872,0.630196,0.781558,-0.000677,0.57328,0.84234,-0.003608,0.739026,0.742479,0.006678,0,0,0,0,0,0,1,0,0,0,0,0,0,0,0
578,'2025/06/17 09:35:28:703',4,0.460592,-0.037384,-0.061326,-0.059641,-0.082626,0.348631,0,-0.490639,0.570649,0.80103,0.000872,0.630196,0.781558,-0.000677,0.57328,0.84234,-0.003608,0.739026,0.742479,0.006678,0,0,0,0,0,0,1,0,0,0,0,0,0,0,0
579,'2025/06/17 09:35:28:711',4,0.460592,-0.037384,-0.061326,-0.059641,-0.082626,0.348631,0,-0.490639,0.570649,0.80103,0.000872,0.630196,0.781558,-0.000677,0.57328,0.84234,-0.003608,0.739026,0.742479,0.006678,0,0,0,0,0,0,1,0,0,0,0,0,0,0,0
580,'2025/06/17 09:35:28:719',4,0.460592,-0.037384,-0.061326,-0.059641,-0.082626,0.348631,0,-0.490639,0.570649,0.80103,0.000872,0.630196,0.781558,-0.000677,0.57328,0.84234,-0.003608,0.739026,0.742479,0.006678,0,0,0,0,0,0,1,0,0,0,0,0,0,0,0
581,'2025/06/17 09:35:28:727',4,0.460592,-0.037384,-0.061326,-0.059641,-0.082626,0.348631,0,-0.490639,0.570649,0.80103,0.000872,0.630196,0.781558,-0.000677,0.57328,0.84234,-0.003608,0.739026,0.742479,0.006678,0,0,0,0,0,0,1,0,0,0,0,0,0,0,0
582,'2025/06/17 09:35:28:734',4,0.460592,-0.037384,-0.061326,-0.059641,-0.082626,0.348631,0,-0.490639,0.570649,0.80103,0.000872,0.630196,0.781558,-0.000677,0.57328,0.84234,-0.003608,0.739026,0.742479,0.006678,0,0,0,0,0,0,1,0,0,0,0,0,0,0,0
583,'2025/06/17 09:35:29:618',5,0.460592,-0.037384,-0.061326,-0.059641,-0.082626,0.348631,0,-0.490639,0.570649,0.80103,0.000872,0.630196,0.781558,-0.000677,0.57328,0.84234,-0.003608,0.739026,0.742479,0.006678,0,0,0,0,0,0,1,0,0,0,0,0,0,0,0
584,'2025/06/17 09:35:29:626',5,0.460592,-0.037384,-0.061326,-0.059641,-0.082626,0.348631,0,-0.490639,0.570649,0.80103,0.000872,0.630196,0.781558,-0.000677,0.57328,0.84234,-0.003608,0.739026,0.742479,0.006678,0,0,0,0,0,0,1,0,0,0,0,0,0,0,0
585,'2025/06/17 09:35:29:632',5,0.460592,-0.037384,-0.061326,-0.059641,-0.082626,0.348631,0,-0.490639,0.570649,0.80103,0.000872,0.630196,0.781558,-0.000677,0.57328,0.84234,-0.003608,0.739026,0.742479,0.006678,0,0,0,0,0,0,1,0,0,0,0,0,0,0,0
586,'2025/06/17 09:35:29:640',5,0.460592,-0.037384,-0.061326,-0.059641,-0.082626,0.348631,0,-0.490639,0.570649,0.80103,0.000872,0.630196,0.781558,-0.000677,0.57328,0.84234,-0.003608,0.739026,0.742479,0.006678,0,0,0,0,0,0,1,0,0,0,0,0,0,0,0
587,'2025/06/17 09:35:29:646',5,0.460592,-0.037384,-0.061326,-0.059641,-0.082626,0.348631,0,-0.490639,0.570649,0.80103,0.000872,0.630196,0.781558,-0.000677,0.57328,0.84234,-0.003608,0.739026,0.742479,0.006678,0,0,0,0,0,0,1,0,0,0,0,0,0,0,0
588,'2025/06/17 09:35:29:653',5,0.460592,-0.037384,-0.061326,-0.059641,-0.082626,0.348631,0,-0.490639,0.570649,0.80103,0.000872,0.630196,0.781558,-0.000677,0.57328,0.84234,-0.003608,0.739026,0.742479,0.006678,0,0,0,0,0,0,1,0,0,0,0,0,0,0,0
589,'2025/06/17 09:35:29:660',5,0.460592,-0.037384,-0.061326,-0.059641,-0.082626,0.348631,0,-0.490639,0.570649,0.80103,0.000872,0.630196,0.781558,-0.000677,0.57328,0.84234,-0.003608,0.739026,0.742479,0.006678,0,0,0,0,0,0,1,0,0,0,0,0,0,0,0
590,'2025/06/17 09:35:29:667',5,0.460592,-0.037384,-0.061326,-0.059641,-0.082626,0.348631,0,-0.490639,0.570649,0.80103,0.000872,0.630196,0.781558,-0.000677,0.57328,0.84234,-0.003608,0.739026,0.742479,0.006678,0,0,0,0,0,0,1,0,0,0,0,0,0,0,0
591,'2025/06/17 09:35:29:673',5,0.460592,-0.037384,-0.061326,-0.059641,-0.082626,0.348631,0,-0.490639,0.570649,0.80103,0.000872,0.630196,0.781558,-0.000677,0.57328,0.84234,-0.003608,0.739026,0.742479,0.006678,0,0,0,0,0,0,1,0,0,0,0,0,0,0,0
592,'2025/06/17 09:35:29:679',5,0.460592,-0.037384,-0.061326,-0.059641,-0.082626,0.348631,0,-0.490639,0.570649,0.80103,0.000872,0.630196,0.781558,-0.000677,0.57328,0.84234,-0.003608,0.739026,0.742479,0.006678,0,0,0,0,0,0,1,0,0,0,0,0,0,0,0
593,'2025/06/17 09:35:29:686',5,0.460592,-0.037384,-0.061326,-0.059641,-0.082626,0.348631,0,-0.490639,0.570649,0.80103,0.000872,0.630196,0.781558,-0.000677,0.57328,0.84234,-0.003608,0.739026,0.742479,0.006678,0,0,0,0,0,0,1,0,0,0,0,0,0,0,0
594,'2025/06/17 09:35:29:693',5,0.460592,-0.037384,-0.061326,-0.059641,-0.082626,0.348631,0,-0.490639,0.570649,0.80103,0.000872,0.630196,0.781558,-0.000677,0.57328,0.84234,-0.003608,0.739026,0.742479,0.006678,0,0,0,0,0,0,1,0,0,0,0,0,0,0,0
595,'2025/06/17 09:35:29:700',5,0.460592,-0.037384,-0.061326,-0.059641,-0.082626,0.348631,0,-0.490639,0.570649,0.80103,0.000872,0.630196,0.781558,-0.000677,0.57328,0.84234,-0.003608,0.739026,0.742479,0.006678,0,0,0,0,0,0,1,0,0,0,0,0,0,0,0
596,'2025/06/17 09:35:29:707',5,0.460592,-0.037384,-0.061326,-0.059641,-0.082626,0.348631,0,-0.490639,0.570649,0.80103,0.000872,0.630196,0.781558,-0.000677,0.57328,0.84234,-0.003608,0.739026,0.742479,0.006678,0,0,0,0,0,0,1,0,0,0,0,0,0,0,0
597,'2025/06/17 09:35:29:716',5,0.460592,-0.037384,-0.061326,-0.059641,-0.082626,0.348631,0,-0.490639,0.570649,0.80103,0.000872,0.630196,0.781558,-0.000677,0.57328,0.84234,-0.003608,0.739026,0.742479,0.006678,0,0,0,0,0,0,1,0,0,0,0,0,0,0,0
598,'2025/06/17 09:35:29:724',5,0.460592,-0.037384,-0.061326,-0.059641,-0.082626,0.348631,0,-0.490639,0.570649,0.80103,0.000872,0.630196,0.781558,-0.000677,0.57328,0.84234,-0.003608,0.739026,0.742479,0.006678,0,0,0,0,0,0,1,0,0,0,0,0,0,0,0
599,'2025/06/17 09:35:29:730',5,0.460592,-0.037384,-0.061326,-0.059641,-0.082626,0.348631,0,-0.490639,0.570649,0.80103,0.000872,0.630196,0.781558,-0.000677,0.57328,0.84234,-0.003608,0.739026,0.742479,0.006678,0,0,0,0,0,0,1,0,0,0,0,0,0,0,0
600,'2025/06/17 09:35:29:737',5,0.460592,-0.037384,-0.061326,-0.059641,-0.082626,0.348631,0,-0.490639,0.570649,0.80103,0.000872,0.630196,0.781558,-0.000677,0.57328,0.84234,-0.003608,0.739026,0.742479,0.006678,0,0,0,0,0,0,1,0,0,0,0,0,0,0,0
601,'2025/06/17 09:35:29:744',5,0.460592,-0.037384,-0.061326,-0.059641,-0.082626,0.348631,0,-0.490639,0.570649,0.80103,0.000872,0.630196,0.781558,-0.000677,0.57328,0.84234,-0.003608,0.739026,0.742479,0.006678,0,0,0,0,0,0,1,0,0,0,0,0,0,0,0
602,'2025/06/17 09:35:29:751',5,0.460592,-0.037384,-0.061326,-0.059641,-0.082626,0.348631,0,-0.490639,0.570649,0.80103,0.000872,0.630196,0.781558,-0.000677,0.57328,0.84234,-0.003608,0.739026,0.742479,0.006678,0,0,0,0,0,0,1,0,0,0,0,0,0,0,0
603,'2025/06/17 09:35:29:757',5,0.460592,-0.037384,-0.061326,-0.059641,-0.082626,0.348631,0,-0.490639,0.570649,0.80103,0.000872,0.630196,0.781558,-0.000677,0.57328,0.84234,-0.003608,0.739026,0.742479,0.006678,0,0,0,0,0,0,1,0,0,0,0,0,0,0,0
604,'2025/06/17 09:35:29:764',5,0.460592,-0.037384,-0.061326,-0.059641,-0.082626,0.348631,0,-0.490639,0.570649,0.80103,0.000872,0.630196,0.781558,-0.000677,0.57328,0.84234,-0.003608,0.739026,0.742479,0.006678,0,0,0,0,0,0,1,0,0,0,0,0,0,0,0
605,'2025/06/17 09:35:29:773',5,0.460592,-0.037384,-0.061326,-0.059641,-0.082626,0.348631,0,-0.490639,0.570649,0.80103,0.000872,0.630196,0.781558,-0.000677,0.57328,0.84234,-0.003608,0.739026,0.742479,0.006678,0,0,0,0,0,0,1,0,0,0,0,0,0,0,0
606,'2025/06/17 09:35:29:782',5,0.460592,-0.037384,-0.061326,-0.059641,-0.082626,0.348631,0,-0.490639,0.570649,0.80103,0.000872,0.630196,0.781558,-0.000677,0.57328,0.84234,-0.003608,0.739026,0.742479,0.006678,0,0,0,0,0,0,1,0,0,0,0,0,0,0,0
607,'2025/06/17 09:35:29:788',5,0.460592,-0.037384,-0.061326,-0.059641,-0.082626,0.348631,0,-0.490639,0.570649,0.80103,0.000872,0.630196,0.781558,-0.000677,0.57328,0.84234,-0.003608,0.739026,0.742479,0.006678,0,0,0,0,0,0,1,0,0,0,0,0,0,0,0
608,'2025/06/17 09:35:29:795',5,0.460592,-0.037384,-0.061326,-0.059641,-0.082626,0.348631,0,-0.490639,0.570649,0.80103,0.000872,0.630196,0.781558,-0.000677,0.57328,0.84234,-0.003608,0.739026,0.742479,0.006678,0,0,0,0,0,0,1,0,0,0,0,0,0,0,0
609,'2025/06/17 09:35:29:802',5,0.460592,-0.037384,-0.061326,-0.059641,-0.082626,0.348631,0,-0.490639,0.570649,0.80103,0.000872,0.630196,0.781558,-0.000677,0.57328,0.84234,-0.003608,0.739026,0.742479,0.006678,0,0,0,0,0,0,1,0,0,0,0,0,0,0,0
610,'2025/06/17 09:35:29:809',5,0.460592,-0.037384,-0.061326,-0.059641,-0.082626,0.348631,0,-0.490639,0.570649,0.80103,0.000872,0.630196,0.781558,-0.000677,0.57328,0.84234,-0.003608,0.739026,0.742479,0.006678,0,0,0,0,0,0,1,0,0,0,0,0,0,0,0
611,'2025/06/17 09:35:29:817',5,0.460592,-0.037384,-0.061326,-0.059641,-0.082626,0.348631,0,-0.490639,0.570649,0.80103,0.000872,0.630196,0.781558,-0.000677,0.57328,0.84234,-0.003608,0.739026,0.742479,0.006678,0,0,0,0,0,0,1,0,0,0,0,0,0,0,0
612,'2025/06/17 09:35:29:827',5,0.460592,-0.037384,-0.061326,-0.059641,-0.082626,0.348631,0,-0.490639,0.570649,0.80103,0.000872,0.630196,0.781558,-0.000677,0.57328,0.84234,-0.003608,0.739026,0.742479,0.006678,0,0,0,0,0,0,1,0,0,0,0,0,0,0,0
613,'2025/06/17 09:35:29:835',5,0.460592,-0.037384,-0.061326,-0.059641,-0.082626,0.348631,0,-0.490639,0.570649,0.80103,0.000872,0.630196,0.781558,-0.000677,0.57328,0.84234,-0.003608,0.739026,0.742479,0.006678,0,0,0,0,0,0,1,0,0,0,0,0,0,0,0
614,'2025/06/17 09:35:29:842',5,0.460592,-0.037384,-0.061326,-0.059641,-0.082626,0.348631,0,-0.490639,0.570649,0.80103,0.000872,0.630196,0.781558,-0.000677,0.57328,0.84234,-0.003608,0.739026,0.742479,0.006678,0,0,0,0,0,0,1,0,0,0,0,0,0,0,0
615,'2025/06/17 09:35:29:848',5,0.460592,-0.037384,-0.061326,-0.059641,-0.082626,0.348631,0,-0.490639,0.570649,0.80103,0.000872,0.630196,0.781558,-0.000677,0.57328,0.84234,-0.003608,0.739026,0.742479,0.006678,0,0,0,0,0,0,1,0,0,0,0,0,0,0,0
616,'2025/06/17 09:35:29:854',5,0.460592,-0.037384,-0.061326,-0.059641,-0.082626,0.348631,0,-0.490639,0.570649,0.80103,0.000872,0.630196,0.781558,-0.000677,0.57328,0.84234,-0.003608,0.739026,0.742479,0.006678,0,0,0,0,0,0,1,0,0,0,0,0,0,0,0
617,'2025/06/17 09:35:29:863',5,0.460592,-0.037384,-0.061326,-0.059641,-0.082626,0.348631,0,-0.490639,0.570649,0.80103,0.000872,0.630196,0.781558,-0.000677,0.57328,0.84234,-0.003608,0.739026,0.742479,0.006678,0,0,0,0,0,0,1,0,0,0,0,0,0,0,0
618,'2025/06/17 09:35:29:869',5,0.460592,-0.037384,-0.061326,-0.059641,-0.082626,0.348631,0,-0.490639,0.570649,0.80103,0.000872,0.630196,0.781558,-0.000677,0.57328,0.84234,-0.003608,0.739026,0.742479,0.006678,0,0,0,0,0,0,1,0,0,0,0,0,0,0,0
619,'2025/06/17 09:35:29:877',5,0.460592,-0.037384,-0.061326,-0.059641,-0.082626,0.348631,0,-0.490639,0.570649,0.80103,0.000872,0.630196,0.781558,-0.000677,0.57328,0.84234,-0.003608,0.739026,0.742479,0.006678,0,0,0,0,0,0,1,0,0,0,0,0,0,0,0
620,'2025/06/17 09:35:29:885',5,0.460592,-0.037384,-0.061326,-0.059641,-0.082626,0.348631,0,-0.490639,0.570649,0.80103,0.000872,0.630196,0.781558,-0.000677,0.57328,0.84234,-0.003608,0.739026,0.742479,0.006678,0,0,0,0,0,0,1,0,0,0,0,0,0,0,0
621,'2025/06/17 09:36:11:691',6,0.083415,0,0,0,0,0.009537,0,-0.091785,0,0.009815,-0.009363,0,0,-0.008008,0,0,-0.008007,0,0,-0.008008,0,0,0,0,0,0,0,1,0,0,0,0,0,0,0
622,'2025/06/17 09:36:11:698',6,0.083415,0,0,0,0,0.009537,0,-0.091785,0,0.009815,-0.009363,0,0,-0.008008,0,0,-0.008007,0,0,-0.008008,0,0,0,0,0,0,0,1,0,0,0,0,0,0,0
623,'2025/06/17 09:36:11:706',6,0.083415,0,0,0,0,0.009537,0,-0.091785,0,0.009815,-0.009363,0,0,-0.008008,0,0,-0.008007,0,0,-0.008008,0,0,0,0,0,0,0,1,0,0,0,0,0,0,0
624,'2025/06/17 09:36:11:716',6,0.083415,0,0,0,0,0.009537,0,-0.091785,0,0.009815,-0.009363,0,0,-0.008008,0,0,-0.008007,0,0,-0.008008,0,0,0,0,0,0,0,1,0,0,0,0,0,0,0
625,'2025/06/17 09:36:11:723',6,0.083415,0,0,0,0,0.009537,0,-0.091785,0,0.009815,-0.009363,0,0,-0.008008,0,0,-0.008007,0,0,-0.008008,0,0,0,0,0,0,0,1,0,0,0,0,0,0,0
626,'2025/06/17 09:36:11:731',6,0.083415,0,0,0,0,0.009537,0,-0.091785,0,0.009815,-0.009363,0,0,-0.008008,0,0,-0.008007,0,0,-0.008008,0,0,0,0,0,0,0,1,0,0,0,0,0,0,0
627,'2025/06/17 09:36:11:738',6,0.083415,0,0,0,0,0.009537,0,-0.091785,0,0.009815,-0.009363,0,0,-0.008008,0,0,-0.008007,0,0,-0.008008,0,0,0,0,0,0,0,1,0,0,0,0,0,0,0
628,'2025/06/17 09:36:11:746',6,0.083415,0,0,0,0,0.009537,0,-0.091785,0,0.009815,-0.009363,0,0,-0.008008,0,0,-0.008007,0,0,-0.008008,0,0,0,0,0,0,0,1,0,0,0,0,0,0,0
629,'2025/06/17 09:36:11:752',6,0.083415,0,0,0,0,0.009537,0,-0.091785,0,0.009815,-0.009363,0,0,-0.008008,0,0,-0.008007,0,0,-0.008008,0,0,0,0,0,0,0,1,0,0,0,0,0,0,0
630,'2025/06/17 09:36:11:761',6,0.083415,0,0,0,0,0.009537,0,-0.091785,0,0.009815,-0.009363,0,0,-0.008008,0,0,-0.008007,0,0,-0.008008,0,0,0,0,0,0,0,1,0,0,0,0,0,0,0
631,'2025/06/17 09:36:11:770',6,0.083415,0,0,0,0,0.009537,0,-0.091785,0,0.009815,-0.009363,0,0,-0.008008,0,0,-0.008007,0,0,-0.008008,0,0,0,0,0,0,0,1,0,0,0,0,0,0,0
632,'2025/06/17 09:36:11:777',6,0.083415,0,0,0,0,0.009537,0,-0.091785,0,0.009815,-0.009363,0,0,-0.008008,0,0,-0.008007,0,0,-0.008008,0,0,0,0,0,0,0,1,0,0,0,0,0,0,0
633,'2025/06/17 09:36:11:785',6,0.083415,0,0,0,0,0.009537,0,-0.091785,0,0.009815,-0.009363,0,0,-0.008008,0,0,-0.008007,0,0,-0.008008,0,0,0,0,0,0,0,1,0,0,0,0,0,0,0
634,'2025/06/17 09:36:11:792',6,0.083415,0,0,0,0,0.009537,0,-0.091785,0,0.009815,-0.009363,0,0,-0.008008,0,0,-0.008007,0,0,-0.008008,0,0,0,0,0,0,0,1,0,0,0,0,0,0,0
635,'2025/06/17 09:36:11:800',6,0.083415,0,0,0,0,0.009537,0,-0.091785,0,0.009815,-0.009363,0,0,-0.008008,0,0,-0.008007,0,0,-0.008008,0,0,0,0,0,0,0,1,0,0,0,0,0,0,0
636,'2025/06/17 09:36:11:809',6,0.083415,0,0,0,0,0.009537,0,-0.091785,0,0.009815,-0.009363,0,0,-0.008008,0,0,-0.008007,0,0,-0.008008,0,0,0,0,0,0,0,1,0,0,0,0,0,0,0
637,'2025/06/17 09:36:11:817',6,0.083415,0,0,0,0,0.009537,0,-0.091785,0,0.009815,-0.009363,0,0,-0.008008,0,0,-0.008007,0,0,-0.008008,0,0,0,0,0,0,0,1,0,0,0,0,0,0,0
638,'2025/06/17 09:36:11:823',6,0.083415,0,0,0,0,0.009537,0,-0.091785,0,0.009815,-0.009363,0,0,-0.008008,0,0,-0.008007,0,0,-0.008008,0,0,0,0,0,0,0,1,0,0,0,0,0,0,0
639,'2025/06/17 09:36:11:831',6,0.083415,0,0,0,0,0.009537,0,-0.091785,0,0.009815,-0.009363,0,0,-0.008008,0,0,-0.008007,0,0,-0.008008,0,0,0,0,0,0,0,1,0,0,0,0,0,0,0
640,'2025/06/17 09:36:11:838',6,0.083415,0,0,0,0,0.009537,0,-0.091785,0,0.009815,-0.009363,0,0,-0.008008,0,0,-0.008007,0,0,-0.008008,0,0,0,0,0,0,0,1,0,0,0,0,0,0,0
641,'2025/06/17 09:36:11:847',6,0.083415,0,0,0,0,0.009537,0,-0.091785,0,0.009815,-0.009363,0,0,-0.008008,0,0,-0.008007,0,0,-0.008008,0,0,0,0,0,0,0,1,0,0,0,0,0,0,0
642,'2025/06/17 09:36:11:852',6,0.083415,0,0,0,0,0.009537,0,-0.091785,0,0.009815,-0.009363,0,0,-0.008008,0,0,-0.008007,0,0,-0.008008,0,0,0,0,0,0,0,1,0,0,0,0,0,0,0
643,'2025/06/17 09:36:11:861',6,0.083415,0,0,0,0,0.009537,0,-0.091785,0,0.009815,-0.009363,0,0,-0.008008,0,0,-0.008007,0,0,-0.008008,0,0,0,0,0,0,0,1,0,0,0,0,0,0,0
644,'2025/06/17 09:36:11:869',6,0.083415,0,0,0,0,0.009537,0,-0.091785,0,0.009815,-0.009363,0,0,-0.008008,0,0,-0.008007,0,0,-0.008008,0,0,0,0,0,0,0,1,0,0,0,0,0,0,0
645,'2025/06/17 09:36:11:876',6,0.083415,0,0,0,0,0.009537,0,-0.091785,0,0.009815,-0.009363,0,0,-0.008008,0,0,-0.008007,0,0,-0.008008,0,0,0,0,0,0,0,1,0,0,0,0,0,0,0
646,'2025/06/17 09:36:11:883',6,0.083415,0,0,0,0,0.009537,0,-0.091785,0,0.009815,-0.009363,0,0,-0.008008,0,0,-0.008007,0,0,-0.008008,0,0,0,0,0,0,0,1,0,0,0,0,0,0,0
647,'2025/06/17 09:36:11:892',6,0.083415,0,0,0,0,0.009537,0,-0.091785,0,0.009815,-0.009363,0,0,-0.008008,0,0,-0.008007,0,0,-0.008008,0,0,0,0,0,0,0,1,0,0,0,0,0,0,0
648,'2025/06/17 09:36:11:900',6,0.083415,0,0,0,0,0.009537,0,-0.091785,0,0.009815,-0.009363,0,0,-0.008008,0,0,-0.008007,0,0,-0.008008,0,0,0,0,0,0,0,1,0,0,0,0,0,0,0
649,'2025/06/17 09:36:11:905',6,0.083415,0,0,0,0,0.009537,0,-0.091785,0,0.009815,-0.009363,0,0,-0.008008,0,0,-0.008007,0,0,-0.008008,0,0,0,0,0,0,0,1,0,0,0,0,0,0,0
650,'2025/06/17 09:36:11:913',6,0.083415,0,0,0,0,0.009537,0,-0.091785,0,0.009815,-0.009363,0,0,-0.008008,0,0,-0.008007,0,0,-0.008008,0,0,0,0,0,0,0,1,0,0,0,0,0,0,0
651,'2025/06/17 09:36:11:921',6,0.083415,0,0,0,0,0.009537,0,-0.091785,0,0.009815,-0.009363,0,0,-0.008008,0,0,-0.008007,0,0,-0.008008,0,0,0,0,0,0,0,1,0,0,0,0,0,0,0
652,'2025/06/17 09:36:11:927',6,0.083415,0,0,0,0,0.009537,0,-0.091785,0,0.009815,-0.009363,0,0,-0.008008,0,0,-0.008007,0,0,-0.008008,0,0,0,0,0,0,0,1,0,0,0,0,0,0,0
653,'2025/06/17 09:36:11:934',6,0.083415,0,0,0,0,0.009537,0,-0.091785,0,0.009815,-0.009363,0,0,-0.008008,0,0,-0.008007,0,0,-0.008008,0,0,0,0,0,0,0,1,0,0,0,0,0,0,0
654,'2025/06/17 09:36:11:942',6,0.083415,0,0,0,0,0.009537,0,-0.091785,0,0.009815,-0.009363,0,0,-0.008008,0,0,-0.008007,0,0,-0.008008,0,0,0,0,0,0,0,1,0,0,0,0,0,0,0
655,'2025/06/17 09:36:11:949',6,0.083415,0,0,0,0,0.009537,0,-0.091785,0,0.009815,-0.009363,0,0,-0.008008,0,0,-0.008007,0,0,-0.008008,0,0,0,0,0,0,0,1,0,0,0,0,0,0,0
656,'2025/06/17 09:36:11:956',6,0.083415,0,0,0,0,0.009537,0,-0.091785,0,0.009815,-0.009363,0,0,-0.008008,0,0,-0.008007,0,0,-0.008008,0,0,0,0,0,0,0,1,0,0,0,0,0,0,0
657,'2025/06/17 09:36:11:964',6,0.083415,0,0,0,0,0.009537,0,-0.091785,0,0.009815,-0.009363,0,0,-0.008008,0,0,-0.008007,0,0,-0.008008,0,0,0,0,0,0,0,1,0,0,0,0,0,0,0
658,'2025/06/17 09:36:11:972',6,0.083415,0,0,0,0,0.009537,0,-0.091785,0,0.009815,-0.009363,0,0,-0.008008,0,0,-0.008007,0,0,-0.008008,0,0,0,0,0,0,0,1,0,0,0,0,0,0,0
659,'2025/06/17 09:36:11:980',6,0.083415,0,0,0,0,0.009537,0,-0.091785,0,0.009815,-0.009363,0,0,-0.008008,0,0,-0.008007,0,0,-0.008008,0,0,0,0,0,0,0,1,0,0,0,0,0,0,0
660,'2025/06/17 09:36:11:986',6,0.083415,0,0,0,0,0.009537,0,-0.091785,0,0.009815,-0.009363,0,0,-0.008008,0,0,-0.008007,0,0,-0.008008,0,0,0,0,0,0,0,1,0,0,0,0,0,0,0
661,'2025/06/17 09:36:11:993',6,0.083415,0,0,0,0,0.009537,0,-0.091785,0,0.009815,-0.009363,0,0,-0.008008,0,0,-0.008007,0,0,-0.008008,0,0,0,0,0,0,0,1,0,0,0,0,0,0,0
662,'2025/06/17 09:36:12:000',6,0.083415,0,0,0,0,0.009537,0,-0.091785,0,0.009815,-0.009363,0,0,-0.008008,0,0,-0.008007,0,0,-0.008008,0,0,0,0,0,0,0,1,0,0,0,0,0,0,0
663,'2025/06/17 09:36:12:007',6,0.083415,0,0,0,0,0.009537,0,-0.091785,0,0.009815,-0.009363,0,0,-0.008008,0,0,-0.008007,0,0,-0.008008,0,0,0,0,0,0,0,1,0,0,0,0,0,0,0
664,'2025/06/17 09:36:12:014',6,0.083415,0,0,0,0,0.009537,0,-0.091785,0,0.009815,-0.009363,0,0,-0.008008,0,0,-0.008007,0,0,-0.008008,0,0,0,0,0,0,0,1,0,0,0,0,0,0,0
665,'2025/06/17 09:36:12:022',6,0.083415,0,0,0,0,0.009537,0,-0.091785,0,0.009815,-0.009363,0,0,-0.008008,0,0,-0.008007,0,0,-0.008008,0,0,0,0,0,0,0,1,0,0,0,0,0,0,0
666,'2025/06/17 09:36:12:028',6,0.083415,0,0,0,0,0.009537,0,-0.091785,0,0.009815,-0.009363,0,0,-0.008008,0,0,-0.008007,0,0,-0.008008,0,0,0,0,0,0,0,1,0,0,0,0,0,0,0
667,'2025/06/17 09:36:12:035',6,0.083415,0,0,0,0,0.009537,0,-0.091785,0,0.009815,-0.009363,0,0,-0.008008,0,0,-0.008007,0,0,-0.008008,0,0,0,0,0,0,0,1,0,0,0,0,0,0,0
668,'2025/06/17 09:36:12:042',6,0.083415,0,0,0,0,0.009537,0,-0.091785,0,0.009815,-0.009363,0,0,-0.008008,0,0,-0.008007,0,0,-0.008008,0,0,0,0,0,0,0,1,0,0,0,0,0,0,0
669,'2025/06/17 09:36:12:048',6,0.083415,0,0,0,0,0.009537,0,-0.091785,0,0.009815,-0.009363,0,0,-0.008008,0,0,-0.008007,0,0,-0.008008,0,0,0,0,0,0,0,1,0,0,0,0,0,0,0
670,'2025/06/17 09:36:12:054',6,0.083415,0,0,0,0,0.009537,0,-0.091785,0,0.009815,-0.009363,0,0,-0.008008,0,0,-0.008007,0,0,-0.008008,0,0,0,0,0,0,0,1,0,0,0,0,0,0,0
671,'2025/06/17 09:36:12:062',6,0.083415,0,0,0,0,0.009537,0,-0.091785,0,0.009815,-0.009363,0,0,-0.008008,0,0,-0.008007,0,0,-0.008008,0,0,0,0,0,0,0,1,0,0,0,0,0,0,0
672,'2025/06/17 09:36:12:069',6,0.083415,0,0,0,0,0.009537,0,-0.091785,0,0.009815,-0.009363,0,0,-0.008008,0,0,-0.008007,0,0,-0.008008,0,0,0,0,0,0,0,1,0,0,0,0,0,0,0
673,'2025/06/17 09:36:12:076',6,0.083415,0,0,0,0,0.009537,0,-0.091785,0,0.009815,-0.009363,0,0,-0.008008,0,0,-0.008007,0,0,-0.008008,0,0,0,0,0,0,0,1,0,0,0,0,0,0,0
674,'2025/06/17 09:36:12:084',6,0.083415,0,0,0,0,0.009537,0,-0.091785,0,0.009815,-0.009363,0,0,-0.008008,0,0,-0.008007,0,0,-0.008008,0,0,0,0,0,0,0,1,0,0,0,0,0,0,0
675,'2025/06/17 09:36:12:090',6,0.083415,0,0,0,0,0.009537,0,-0.091785,0,0.009815,-0.009363,0,0,-0.008008,0,0,-0.008007,0,0,-0.008008,0,0,0,0,0,0,0,1,0,0,0,0,0,0,0
676,'2025/06/17 09:36:12:097',6,0.083415,0,0,0,0,0.009537,0,-0.091785,0,0.009815,-0.009363,0,0,-0.008008,0,0,-0.008007,0,0,-0.008008,0,0,0,0,0,0,0,1,0,0,0,0,0,0,0
677,'2025/06/17 09:36:12:104',6,0.083415,0,0,0,0,0.009537,0,-0.091785,0,0.009815,-0.009363,0,0,-0.008008,0,0,-0.008007,0,0,-0.008008,0,0,0,0,0,0,0,1,0,0,0,0,0,0,0
678,'2025/06/17 09:36:12:110',6,0.083415,0,0,0,0,0.009537,0,-0.091785,0,0.009815,-0.009363,0,0,-0.008008,0,0,-0.008007,0,0,-0.008008,0,0,0,0,0,0,0,1,0,0,0,0,0,0,0
679,'2025/06/17 09:36:12:115',6,0.083415,0,0,0,0,0.009537,0,-0.091785,0,0.009815,-0.009363,0,0,-0.008008,0,0,-0.008007,0,0,-0.008008,0,0,0,0,0,0,0,1,0,0,0,0,0,0,0
680,'2025/06/17 09:36:12:123',6,0.083415,0,0,0,0,0.009537,0,-0.091785,0,0.009815,-0.009363,0,0,-0.008008,0,0,-0.008007,0,0,-0.008008,0,0,0,0,0,0,0,1,0,0,0,0,0,0,0
681,'2025/06/17 09:36:12:130',6,0.083415,0,0,0,0,0.009537,0,-0.091785,0,0.009815,-0.009363,0,0,-0.008008,0,0,-0.008007,0,0,-0.008008,0,0,0,0,0,0,0,1,0,0,0,0,0,0,0
682,'2025/06/17 09:36:12:137',6,0.083415,0,0,0,0,0.009537,0,-0.091785,0,0.009815,-0.009363,0,0,-0.008008,0,0,-0.008007,0,0,-0.008008,0,0,0,0,0,0,0,1,0,0,0,0,0,0,0
683,'2025/06/17 09:36:12:145',6,0.083415,0,0,0,0,0.009537,0,-0.091785,0,0.009815,-0.009363,0,0,-0.008008,0,0,-0.008007,0,0,-0.008008,0,0,0,0,0,0,0,1,0,0,0,0,0,0,0
684,'2025/06/17 09:36:12:153',6,0.083415,0,0,0,0,0.009537,0,-0.091785,0,0.009815,-0.009363,0,0,-0.008008,0,0,-0.008007,0,0,-0.008008,0,0,0,0,0,0,0,1,0,0,0,0,0,0,0
685,'2025/06/17 09:36:12:162',6,0.083415,0,0,0,0,0.009537,0,-0.091785,0,0.009815,-0.009363,0,0,-0.008008,0,0,-0.008007,0,0,-0.008008,0,0,0,0,0,0,0,1,0,0,0,0,0,0,0
686,'2025/06/17 09:36:12:169',6,0.083415,0,0,0,0,0.009537,0,-0.091785,0,0.009815,-0.009363,0,0,-0.008008,0,0,-0.008007,0,0,-0.008008,0,0,0,0,0,0,0,1,0,0,0,0,0,0,0
687,'2025/06/17 09:36:12:176',6,0.083415,0,0,0,0,0.009537,0,-0.091785,0,0.009815,-0.009363,0,0,-0.008008,0,0,-0.008007,0,0,-0.008008,0,0,0,0,0,0,0,1,0,0,0,0,0,0,0
688,'2025/06/17 09:36:12:183',6,0.083415,0,0,0,0,0.009537,0,-0.091785,0,0.009815,-0.009363,0,0,-0.008008,0,0,-0.008007,0,0,-0.008008,0,0,0,0,0,0,0,1,0,0,0,0,0,0,0
689,'2025/06/17 09:36:12:190',6,0.083415,0,0,0,0,0.009537,0,-0.091785,0,0.009815,-0.009363,0,0,-0.008008,0,0,-0.008007,0,0,-0.008008,0,0,0,0,0,0,0,1,0,0,0,0,0,0,0
690,'2025/06/17 09:36:12:197',6,0.083415,0,0,0,0,0.009537,0,-0.091785,0,0.009815,-0.009363,0,0,-0.008008,0,0,-0.008007,0,0,-0.008008,0,0,0,0,0,0,0,1,0,0,0,0,0,0,0
691,'2025/06/17 09:36:12:205',6,0.083415,0,0,0,0,0.009537,0,-0.091785,0,0.009815,-0.009363,0,0,-0.008008,0,0,-0.008007,0,0,-0.008008,0,0,0,0,0,0,0,1,0,0,0,0,0,0,0
692,'2025/06/17 09:36:12:213',6,0.083415,0,0,0,0,0.009537,0,-0.091785,0,0.009815,-0.009363,0,0,-0.008008,0,0,-0.008007,0,0,-0.008008,0,0,0,0,0,0,0,1,0,0,0,0,0,0,0
693,'2025/06/17 09:36:12:221',6,0.083415,0,0,0,0,0.009537,0,-0.091785,0,0.009815,-0.009363,0,0,-0.008008,0,0,-0.008007,0,0,-0.008008,0,0,0,0,0,0,0,1,0,0,0,0,0,0,0
694,'2025/06/17 09:36:12:228',6,0.083415,0,0,0,0,0.009537,0,-0.091785,0,0.009815,-0.009363,0,0,-0.008008,0,0,-0.008007,0,0,-0.008008,0,0,0,0,0,0,0,1,0,0,0,0,0,0,0
695,'2025/06/17 09:36:12:234',6,0.083415,0,0,0,0,0.009537,0,-0.091785,0,0.009815,-0.009363,0,0,-0.008008,0,0,-0.008007,0,0,-0.008008,0,0,0,0,0,0,0,1,0,0,0,0,0,0,0
696,'2025/06/17 09:36:12:242',6,0.083415,0,0,0,0,0.009537,0,-0.091785,0,0.009815,-0.009363,0,0,-0.008008,0,0,-0.008007,0,0,-0.008008,0,0,0,0,0,0,0,1,0,0,0,0,0,0,0
697,'2025/06/17 09:36:12:247',6,0.083415,0,0,0,0,0.009537,0,-0.091785,0,0.009815,-0.009363,0,0,-0.008008,0,0,-0.008007,0,0,-0.008008,0,0,0,0,0,0,0,1,0,0,0,0,0,0,0
698,'2025/06/17 09:36:12:254',6,0.083415,0,0,0,0,0.009537,0,-0.091785,0,0.009815,-0.009363,0,0,-0.008008,0,0,-0.008007,0,0,-0.008008,0,0,0,0,0,0,0,1,0,0,0,0,0,0,0
699,'2025/06/17 09:36:12:262',6,0.083415,0,0,0,0,0.009537,0,-0.091785,0,0.009815,-0.009363,0,0,-0.008008,0,0,-0.008007,0,0,-0.008008,0,0,0,0,0,0,0,1,0,0,0,0,0,0,0
700,'2025/06/17 09:36:12:268',6,0.083415,0,0,0,0,0.009537,0,-0.091785,0,0.009815,-0.009363,0,0,-0.008008,0,0,-0.008007,0,0,-0.008008,0,0,0,0,0,0,0,1,0,0,0,0,0,0,0
701,'2025/06/17 09:36:12:274',6,0.083415,0,0,0,0,0.009537,0,-0.091785,0,0.009815,-0.009363,0,0,-0.008008,0,0,-0.008007,0,0,-0.008008,0,0,0,0,0,0,0,1,0,0,0,0,0,0,0
702,'2025/06/17 09:36:12:281',6,0.083415,0,0,0,0,0.009537,0,-0.091785,0,0.009815,-0.009363,0,0,-0.008008,0,0,-0.008007,0,0,-0.008008,0,0,0,0,0,0,0,1,0,0,0,0,0,0,0
703,'2025/06/17 09:36:12:287',6,0.083415,0,0,0,0,0.009537,0,-0.091785,0,0.009815,-0.009363,0,0,-0.008008,0,0,-0.008007,0,0,-0.008008,0,0,0,0,0,0,0,1,0,0,0,0,0,0,0
704,'2025/06/17 09:36:12:295',6,0.083415,0,0,0,0,0.009537,0,-0.091785,0,0.009815,-0.009363,0,0,-0.008008,0,0,-0.008007,0,0,-0.008008,0,0,0,0,0,0,0,1,0,0,0,0,0,0,0
705,'2025/06/17 09:36:12:301',6,0.083415,0,0,0,0,0.009537,0,-0.091785,0,0.009815,-0.009363,0,0,-0.008008,0,0,-0.008007,0,0,-0.008008,0,0,0,0,0,0,0,1,0,0,0,0,0,0,0
706,'2025/06/17 09:36:12:307',6,0.083415,0,0,0,0,0.009537,0,-0.091785,0,0.009815,-0.009363,0,0,-0.008008,0,0,-0.008007,0,0,-0.008008,0,0,0,0,0,0,0,1,0,0,0,0,0,0,0
707,'2025/06/17 09:36:12:314',6,0.083415,0,0,0,0,0.009537,0,-0.091785,0,0.009815,-0.009363,0,0,-0.008008,0,0,-0.008007,0,0,-0.008008,0,0,0,0,0,0,0,1,0,0,0,0,0,0,0
708,'2025/06/17 09:37:19:046',7,0.414733,0.025392,-0.016821,-0.022381,-0.017247,0.086767,0.314576,0.043691,0.171859,0.705168,-0.075396,0.118837,0,0.00038,0.156163,0,0.003314,0.121422,0,0.000623,0,0,0,0,0,0,0,0,1,0,0,0,0,0,0
709,'2025/06/17 09:37:19:054',7,0.414733,0.025392,-0.016821,-0.022381,-0.017247,0.086767,0.314576,0.043691,0.171859,0.705168,-0.075396,0.118837,0,0.00038,0.156163,0,0.003314,0.121422,0,0.000623,0,0,0,0,0,0,0,0,1,0,0,0,0,0,0
710,'2025/06/17 09:37:19:063',7,0.414733,0.025392,-0.016821,-0.022381,-0.017247,0.086767,0.314576,0.043691,0.171859,0.705168,-0.075396,0.118837,0,0.00038,0.156163,0,0.003314,0.121422,0,0.000623,0,0,0,0,0,0,0,0,1,0,0,0,0,0,0
711,'2025/06/17 09:37:19:068',7,0.414733,0.025392,-0.016821,-0.022381,-0.017247,0.086767,0.314576,0.043691,0.171859,0.705168,-0.075396,0.118837,0,0.00038,0.156163,0,0.003314,0.121422,0,0.000623,0,0,0,0,0,0,0,0,1,0,0,0,0,0,0
712,'2025/06/17 09:37:19:077',7,0.414733,0.025392,-0.016821,-0.022381,-0.017247,0.086767,0.314576,0.043691,0.171859,0.705168,-0.075396,0.118837,0,0.00038,0.156163,0,0.003314,0.121422,0,0.000623,0,0,0,0,0,0,0,0,1,0,0,0,0,0,0
713,'2025/06/17 09:37:19:084',7,0.414733,0.025392,-0.016821,-0.022381,-0.017247,0.086767,0.314576,0.043691,0.171859,0.705168,-0.075396,0.118837,0,0.00038,0.156163,0,0.003314,0.121422,0,0.000623,0,0,0,0,0,0,0,0,1,0,0,0,0,0,0
714,'2025/06/17 09:37:19:093',7,0.414733,0.025392,-0.016821,-0.022381,-0.017247,0.086767,0.314576,0.043691,0.171859,0.705168,-0.075396,0.118837,0,0.00038,0.156163,0,0.003314,0.121422,0,0.000623,0,0,0,0,0,0,0,0,1,0,0,0,0,0,0
715,'2025/06/17 09:37:19:101',7,0.414733,0.025392,-0.016821,-0.022381,-0.017247,0.086767,0.314576,0.043691,0.171859,0.705168,-0.075396,0.118837,0,0.00038,0.156163,0,0.003314,0.121422,0,0.000623,0,0,0,0,0,0,0,0,1,0,0,0,0,0,0
716,'2025/06/17 09:37:19:108',7,0.414733,0.025392,-0.016821,-0.022381,-0.017247,0.086767,0.314576,0.043691,0.171859,0.705168,-0.075396,0.118837,0,0.00038,0.156163,0,0.003314,0.121422,0,0.000623,0,0,0,0,0,0,0,0,1,0,0,0,0,0,0
717,'2025/06/17 09:37:19:114',7,0.414733,0.025392,-0.016821,-0.022381,-0.017247,0.086767,0.314576,0.043691,0.171859,0.705168,-0.075396,0.118837,0,0.00038,0.156163,0,0.003314,0.121422,0,0.000623,0,0,0,0,0,0,0,0,1,0,0,0,0,0,0
718,'2025/06/17 09:37:19:121',7,0.414733,0.025392,-0.016821,-0.022381,-0.017247,0.086767,0.314576,0.043691,0.171859,0.705168,-0.075396,0.118837,0,0.00038,0.156163,0,0.003314,0.121422,0,0.000623,0,0,0,0,0,0,0,0,1,0,0,0,0,0,0
719,'2025/06/17 09:37:19:130',7,0.414733,0.025392,-0.016821,-0.022381,-0.017247,0.086767,0.314576,0.043691,0.171859,0.705168,-0.075396,0.118837,0,0.00038,0.156163,0,0.003314,0.121422,0,0.000623,0,0,0,0,0,0,0,0,1,0,0,0,0,0,0
720,'2025/06/17 09:37:19:138',7,0.414733,0.025392,-0.016821,-0.022381,-0.017247,0.086767,0.314576,0.043691,0.171859,0.705168,-0.075396,0.118837,0,0.00038,0.156163,0,0.003314,0.121422,0,0.000623,0,0,0,0,0,0,0,0,1,0,0,0,0,0,0
721,'2025/06/17 09:37:19:147',7,0.414733,0.025392,-0.016821,-0.022381,-0.017247,0.086767,0.314576,0.043691,0.171859,0.705168,-0.075396,0.118837,0,0.00038,0.156163,0,0.003314,0.121422,0,0.000623,0,0,0,0,0,0,0,0,1,0,0,0,0,0,0
722,'2025/06/17 09:37:19:153',7,0.414733,0.025392,-0.016821,-0.022381,-0.017247,0.086767,0.314576,0.043691,0.171859,0.705168,-0.075396,0.118837,0,0.00038,0.156163,0,0.003314,0.121422,0,0.000623,0,0,0,0,0,0,0,0,1,0,0,0,0,0,0
723,'2025/06/17 09:37:19:163',7,0.414733,0.025392,-0.016821,-0.022381,-0.017247,0.086767,0.314576,0.043691,0.171859,0.705168,-0.075396,0.118837,0,0.00038,0.156163,0,0.003314,0.121422,0,0.000623,0,0,0,0,0,0,0,0,1,0,0,0,0,0,0
724,'2025/06/17 09:37:19:170',7,0.414733,0.025392,-0.016821,-0.022381,-0.017247,0.086767,0.314576,0.043691,0.171859,0.705168,-0.075396,0.118837,0,0.00038,0.156163,0,0.003314,0.121422,0,0.000623,0,0,0,0,0,0,0,0,1,0,0,0,0,0,0
725,'2025/06/17 09:37:19:177',7,0.414733,0.025392,-0.016821,-0.022381,-0.017247,0.086767,0.314576,0.043691,0.171859,0.705168,-0.075396,0.118837,0,0.00038,0.156163,0,0.003314,0.121422,0,0.000623,0,0,0,0,0,0,0,0,1,0,0,0,0,0,0
726,'2025/06/17 09:37:19:185',7,0.414733,0.025392,-0.016821,-0.022381,-0.017247,0.086767,0.314576,0.043691,0.171859,0.705168,-0.075396,0.118837,0,0.00038,0.156163,0,0.003314,0.121422,0,0.000623,0,0,0,0,0,0,0,0,1,0,0,0,0,0,0
727,'2025/06/17 09:37:19:194',7,0.414733,0.025392,-0.016821,-0.022381,-0.017247,0.086767,0.314576,0.043691,0.171859,0.705168,-0.075396,0.118837,0,0.00038,0.156163,0,0.003314,0.121422,0,0.000623,0,0,0,0,0,0,0,0,1,0,0,0,0,0,0
728,'2025/06/17 09:37:19:202',7,0.414733,0.025392,-0.016821,-0.022381,-0.017247,0.086767,0.314576,0.043691,0.171859,0.705168,-0.075396,0.118837,0,0.00038,0.156163,0,0.003314,0.121422,0,0.000623,0,0,0,0,0,0,0,0,1,0,0,0,0,0,0
729,'2025/06/17 09:37:19:211',7,0.414733,0.025392,-0.016821,-0.022381,-0.017247,0.086767,0.314576,0.043691,0.171859,0.705168,-0.075396,0.118837,0,0.00038,0.156163,0,0.003314,0.121422,0,0.000623,0,0,0,0,0,0,0,0,1,0,0,0,0,0,0
730,'2025/06/17 09:37:19:219',7,0.414733,0.025392,-0.016821,-0.022381,-0.017247,0.086767,0.314576,0.043691,0.171859,0.705168,-0.075396,0.118837,0,0.00038,0.156163,0,0.003314,0.121422,0,0.000623,0,0,0,0,0,0,0,0,1,0,0,0,0,0,0
731,'2025/06/17 09:37:19:227',7,0.414733,0.025392,-0.016821,-0.022381,-0.017247,0.086767,0.314576,0.043691,0.171859,0.705168,-0.075396,0.118837,0,0.00038,0.156163,0,0.003314,0.121422,0,0.000623,0,0,0,0,0,0,0,0,1,0,0,0,0,0,0
732,'2025/06/17 09:37:19:233',7,0.414733,0.025392,-0.016821,-0.022381,-0.017247,0.086767,0.314576,0.043691,0.171859,0.705168,-0.075396,0.118837,0,0.00038,0.156163,0,0.003314,0.121422,0,0.000623,0,0,0,0,0,0,0,0,1,0,0,0,0,0,0
733,'2025/06/17 09:37:19:241',7,0.414733,0.025392,-0.016821,-0.022381,-0.017247,0.086767,0.314576,0.043691,0.171859,0.705168,-0.075396,0.118837,0,0.00038,0.156163,0,0.003314,0.121422,0,0.000623,0,0,0,0,0,0,0,0,1,0,0,0,0,0,0
734,'2025/06/17 09:37:19:249',7,0.414733,0.025392,-0.016821,-0.022381,-0.017247,0.086767,0.314576,0.043691,0.171859,0.705168,-0.075396,0.118837,0,0.00038,0.156163,0,0.003314,0.121422,0,0.000623,0,0,0,0,0,0,0,0,1,0,0,0,0,0,0
735,'2025/06/17 09:37:19:256',7,0.414733,0.025392,-0.016821,-0.022381,-0.017247,0.086767,0.314576,0.043691,0.171859,0.705168,-0.075396,0.118837,0,0.00038,0.156163,0,0.003314,0.121422,0,0.000623,0,0,0,0,0,0,0,0,1,0,0,0,0,0,0
736,'2025/06/17 09:37:19:265',7,0.414733,0.025392,-0.016821,-0.022381,-0.017247,0.086767,0.314576,0.043691,0.171859,0.705168,-0.075396,0.118837,0,0.00038,0.156163,0,0.003314,0.121422,0,0.000623,0,0,0,0,0,0,0,0,1,0,0,0,0,0,0
737,'2025/06/17 09:37:19:274',7,0.414733,0.025392,-0.016821,-0.022381,-0.017247,0.086767,0.314576,0.043691,0.171859,0.705168,-0.075396,0.118837,0,0.00038,0.156163,0,0.003314,0.121422,0,0.000623,0,0,0,0,0,0,0,0,1,0,0,0,0,0,0
738,'2025/06/17 09:37:19:283',7,0.414733,0.025392,-0.016821,-0.022381,-0.017247,0.086767,0.314576,0.043691,0.171859,0.705168,-0.075396,0.118837,0,0.00038,0.156163,0,0.003314,0.121422,0,0.000623,0,0,0,0,0,0,0,0,1,0,0,0,0,0,0
739,'2025/06/17 09:37:19:288',7,0.414733,0.025392,-0.016821,-0.022381,-0.017247,0.086767,0.314576,0.043691,0.171859,0.705168,-0.075396,0.118837,0,0.00038,0.156163,0,0.003314,0.121422,0,0.000623,0,0,0,0,0,0,0,0,1,0,0,0,0,0,0
740,'2025/06/17 09:37:19:294',7,0.414733,0.025392,-0.016821,-0.022381,-0.017247,0.086767,0.314576,0.043691,0.171859,0.705168,-0.075396,0.118837,0,0.00038,0.156163,0,0.003314,0.121422,0,0.000623,0,0,0,0,0,0,0,0,1,0,0,0,0,0,0
741,'2025/06/17 09:37:19:302',7,0.414733,0.025392,-0.016821,-0.022381,-0.017247,0.086767,0.314576,0.043691,0.171859,0.705168,-0.075396,0.118837,0,0.00038,0.156163,0,0.003314,0.121422,0,0.000623,0,0,0,0,0,0,0,0,1,0,0,0,0,0,0
742,'2025/06/17 09:37:19:308',7,0.414733,0.025392,-0.016821,-0.022381,-0.017247,0.086767,0.314576,0.043691,0.171859,0.705168,-0.075396,0.118837,0,0.00038,0.156163,0,0.003314,0.121422,0,0.000623,0,0,0,0,0,0,0,0,1,0,0,0,0,0,0
743,'2025/06/17 09:37:19:316',7,0.414733,0.025392,-0.016821,-0.022381,-0.017247,0.086767,0.314576,0.043691,0.171859,0.705168,-0.075396,0.118837,0,0.00038,0.156163,0,0.003314,0.121422,0,0.000623,0,0,0,0,0,0,0,0,1,0,0,0,0,0,0
744,'2025/06/17 09:37:19:322',7,0.414733,0.025392,-0.016821,-0.022381,-0.017247,0.086767,0.314576,0.043691,0.171859,0.705168,-0.075396,0.118837,0,0.00038,0.156163,0,0.003314,0.121422,0,0.000623,0,0,0,0,0,0,0,0,1,0,0,0,0,0,0
745,'2025/06/17 09:37:19:329',7,0.414733,0.025392,-0.016821,-0.022381,-0.017247,0.086767,0.314576,0.043691,0.171859,0.705168,-0.075396,0.118837,0,0.00038,0.156163,0,0.003314,0.121422,0,0.000623,0,0,0,0,0,0,0,0,1,0,0,0,0,0,0
746,'2025/06/17 09:37:19:337',7,0.414733,0.025392,-0.016821,-0.022381,-0.017247,0.086767,0.314576,0.043691,0.171859,0.705168,-0.075396,0.118837,0,0.00038,0.156163,0,0.003314,0.121422,0,0.000623,0,0,0,0,0,0,0,0,1,0,0,0,0,0,0
747,'2025/06/17 09:37:19:344',7,0.414733,0.025392,-0.016821,-0.022381,-0.017247,0.086767,0.314576,0.043691,0.171859,0.705168,-0.075396,0.118837,0,0.00038,0.156163,0,0.003314,0.121422,0,0.000623,0,0,0,0,0,0,0,0,1,0,0,0,0,0,0
748,'2025/06/17 09:37:19:351',7,0.414733,0.025392,-0.016821,-0.022381,-0.017247,0.086767,0.314576,0.043691,0.171859,0.705168,-0.075396,0.118837,0,0.00038,0.156163,0,0.003314,0.121422,0,0.000623,0,0,0,0,0,0,0,0,1,0,0,0,0,0,0
749,'2025/06/17 09:37:19:360',7,0.414733,0.025392,-0.016821,-0.022381,-0.017247,0.086767,0.314576,0.043691,0.171859,0.705168,-0.075396,0.118837,0,0.00038,0.156163,0,0.003314,0.121422,0,0.000623,0,0,0,0,0,0,0,0,1,0,0,0,0,0,0
750,'2025/06/17 09:37:19:367',7,0.414733,0.025392,-0.016821,-0.022381,-0.017247,0.086767,0.314576,0.043691,0.171859,0.705168,-0.075396,0.118837,0,0.00038,0.156163,0,0.003314,0.121422,0,0.000623,0,0,0,0,0,0,0,0,1,0,0,0,0,0,0
751,'2025/06/17 09:37:19:374',7,0.414733,0.025392,-0.016821,-0.022381,-0.017247,0.086767,0.314576,0.043691,0.171859,0.705168,-0.075396,0.118837,0,0.00038,0.156163,0,0.003314,0.121422,0,0.000623,0,0,0,0,0,0,0,0,1,0,0,0,0,0,0
752,'2025/06/17 09:37:19:383',7,0.414733,0.025392,-0.016821,-0.022381,-0.017247,0.086767,0.314576,0.043691,0.171859,0.705168,-0.075396,0.118837,0,0.00038,0.156163,0,0.003314,0.121422,0,0.000623,0,0,0,0,0,0,0,0,1,0,0,0,0,0,0
753,'2025/06/17 09:37:19:389',7,0.414733,0.025392,-0.016821,-0.022381,-0.017247,0.086767,0.314576,0.043691,0.171859,0.705168,-0.075396,0.118837,0,0.00038,0.156163,0,0.003314,0.121422,0,0.000623,0,0,0,0,0,0,0,0,1,0,0,0,0,0,0
754,'2025/06/17 09:37:19:397',7,0.414733,0.025392,-0.016821,-0.022381,-0.017247,0.086767,0.314576,0.043691,0.171859,0.705168,-0.075396,0.118837,0,0.00038,0.156163,0,0.003314,0.121422,0,0.000623,0,0,0,0,0,0,0,0,1,0,0,0,0,0,0
755,'2025/06/17 09:37:19:406',7,0.414733,0.025392,-0.016821,-0.022381,-0.017247,0.086767,0.314576,0.043691,0.171859,0.705168,-0.075396,0.118837,0,0.00038,0.156163,0,0.003314,0.121422,0,0.000623,0,0,0,0,0,0,0,0,1,0,0,0,0,0,0
756,'2025/06/17 09:37:19:413',7,0.414733,0.025392,-0.016821,-0.022381,-0.017247,0.086767,0.314576,0.043691,0.171859,0.705168,-0.075396,0.118837,0,0.00038,0.156163,0,0.003314,0.121422,0,0.000623,0,0,0,0,0,0,0,0,1,0,0,0,0,0,0
757,'2025/06/17 09:37:19:421',7,0.414733,0.025392,-0.016821,-0.022381,-0.017247,0.086767,0.314576,0.043691,0.171859,0.705168,-0.075396,0.118837,0,0.00038,0.156163,0,0.003314,0.121422,0,0.000623,0,0,0,0,0,0,0,0,1,0,0,0,0,0,0
758,'2025/06/17 09:37:19:426',7,0.414733,0.025392,-0.016821,-0.022381,-0.017247,0.086767,0.314576,0.043691,0.171859,0.705168,-0.075396,0.118837,0,0.00038,0.156163,0,0.003314,0.121422,0,0.000623,0,0,0,0,0,0,0,0,1,0,0,0,0,0,0
759,'2025/06/17 09:37:19:434',7,0.414733,0.025392,-0.016821,-0.022381,-0.017247,0.086767,0.314576,0.043691,0.171859,0.705168,-0.075396,0.118837,0,0.00038,0.156163,0,0.003314,0.121422,0,0.000623,0,0,0,0,0,0,0,0,1,0,0,0,0,0,0
760,'2025/06/17 09:37:19:441',7,0.414733,0.025392,-0.016821,-0.022381,-0.017247,0.086767,0.314576,0.043691,0.171859,0.705168,-0.075396,0.118837,0,0.00038,0.156163,0,0.003314,0.121422,0,0.000623,0,0,0,0,0,0,0,0,1,0,0,0,0,0,0
761,'2025/06/17 09:37:19:446',7,0.414733,0.025392,-0.016821,-0.022381,-0.017247,0.086767,0.314576,0.043691,0.171859,0.705168,-0.075396,0.118837,0,0.00038,0.156163,0,0.003314,0.121422,0,0.000623,0,0,0,0,0,0,0,0,1,0,0,0,0,0,0
762,'2025/06/17 09:37:19:454',7,0.414733,0.025392,-0.016821,-0.022381,-0.017247,0.086767,0.314576,0.043691,0.171859,0.705168,-0.075396,0.118837,0,0.00038,0.156163,0,0.003314,0.121422,0,0.000623,0,0,0,0,0,0,0,0,1,0,0,0,0,0,0
763,'2025/06/17 09:37:19:461',7,0.414733,0.025392,-0.016821,-0.022381,-0.017247,0.086767,0.314576,0.043691,0.171859,0.705168,-0.075396,0.118837,0,0.00038,0.156163,0,0.003314,0.121422,0,0.000623,0,0,0,0,0,0,0,0,1,0,0,0,0,0,0
764,'2025/06/17 09:37:19:468',7,0.414733,0.025392,-0.016821,-0.022381,-0.017247,0.086767,0.314576,0.043691,0.171859,0.705168,-0.075396,0.118837,0,0.00038,0.156163,0,0.003314,0.121422,0,0.000623,0,0,0,0,0,0,0,0,1,0,0,0,0,0,0
765,'2025/06/17 09:37:19:475',7,0.414733,0.025392,-0.016821,-0.022381,-0.017247,0.086767,0.314576,0.043691,0.171859,0.705168,-0.075396,0.118837,0,0.00038,0.156163,0,0.003314,0.121422,0,0.000623,0,0,0,0,0,0,0,0,1,0,0,0,0,0,0
766,'2025/06/17 09:37:19:481',7,0.414733,0.025392,-0.016821,-0.022381,-0.017247,0.086767,0.314576,0.043691,0.171859,0.705168,-0.075396,0.118837,0,0.00038,0.156163,0,0.003314,0.121422,0,0.000623,0,0,0,0,0,0,0,0,1,0,0,0,0,0,0
767,'2025/06/17 09:37:19:488',7,0.414733,0.025392,-0.016821,-0.022381,-0.017247,0.086767,0.314576,0.043691,0.171859,0.705168,-0.075396,0.118837,0,0.00038,0.156163,0,0.003314,0.121422,0,0.000623,0,0,0,0,0,0,0,0,1,0,0,0,0,0,0
768,'2025/06/17 09:37:19:494',7,0.414733,0.025392,-0.016821,-0.022381,-0.017247,0.086767,0.314576,0.043691,0.171859,0.705168,-0.075396,0.118837,0,0.00038,0.156163,0,0.003314,0.121422,0,0.000623,0,0,0,0,0,0,0,0,1,0,0,0,0,0,0
769,'2025/06/17 09:37:19:504',7,0.414733,0.025392,-0.016821,-0.022381,-0.017247,0.086767,0.314576,0.043691,0.171859,0.705168,-0.075396,0.118837,0,0.00038,0.156163,0,0.003314,0.121422,0,0.000623,0,0,0,0,0,0,0,0,1,0,0,0,0,0,0
770,'2025/06/17 09:37:20:054',8,0.414733,0.025392,-0.016821,-0.022381,-0.017247,0.086767,0.314576,0.043691,0.171859,0.705168,-0.075396,0.118837,0,0.00038,0.156163,0,0.003314,0.121422,0,0.000623,0,0,0,0,0,0,0,0,1,0,0,0,0,0,0
771,'2025/06/17 09:37:20:062',8,0.414733,0.025392,-0.016821,-0.022381,-0.017247,0.086767,0.314576,0.043691,0.171859,0.705168,-0.075396,0.118837,0,0.00038,0.156163,0,0.003314,0.121422,0,0.000623,0,0,0,0,0,0,0,0,1,0,0,0,0,0,0
772,'2025/06/17 09:37:20:068',8,0.414733,0.025392,-0.016821,-0.022381,-0.017247,0.086767,0.314576,0.043691,0.171859,0.705168,-0.075396,0.118837,0,0.00038,0.156163,0,0.003314,0.121422,0,0.000623,0,0,0,0,0,0,0,0,1,0,0,0,0,0,0
773,'2025/06/17 09:37:20:077',8,0.414733,0.025392,-0.016821,-0.022381,-0.017247,0.086767,0.314576,0.043691,0.171859,0.705168,-0.075396,0.118837,0,0.00038,0.156163,0,0.003314,0.121422,0,0.000623,0,0,0,0,0,0,0,0,1,0,0,0,0,0,0
774,'2025/06/17 09:37:20:085',8,0.414733,0.025392,-0.016821,-0.022381,-0.017247,0.086767,0.314576,0.043691,0.171859,0.705168,-0.075396,0.118837,0,0.00038,0.156163,0,0.003314,0.121422,0,0.000623,0,0,0,0,0,0,0,0,1,0,0,0,0,0,0
775,'2025/06/17 09:37:20:091',8,0.414733,0.025392,-0.016821,-0.022381,-0.017247,0.086767,0.314576,0.043691,0.171859,0.705168,-0.075396,0.118837,0,0.00038,0.156163,0,0.003314,0.121422,0,0.000623,0,0,0,0,0,0,0,0,1,0,0,0,0,0,0
776,'2025/06/17 09:37:20:099',8,0.414733,0.025392,-0.016821,-0.022381,-0.017247,0.086767,0.314576,0.043691,0.171859,0.705168,-0.075396,0.118837,0,0.00038,0.156163,0,0.003314,0.121422,0,0.000623,0,0,0,0,0,0,0,0,1,0,0,0,0,0,0
777,'2025/06/17 09:37:20:107',8,0.414733,0.025392,-0.016821,-0.022381,-0.017247,0.086767,0.314576,0.043691,0.171859,0.705168,-0.075396,0.118837,0,0.00038,0.156163,0,0.003314,0.121422,0,0.000623,0,0,0,0,0,0,0,0,1,0,0,0,0,0,0
778,'2025/06/17 09:37:20:114',8,0.414733,0.025392,-0.016821,-0.022381,-0.017247,0.086767,0.314576,0.043691,0.171859,0.705168,-0.075396,0.118837,0,0.00038,0.156163,0,0.003314,0.121422,0,0.000623,0,0,0,0,0,0,0,0,1,0,0,0,0,0,0
779,'2025/06/17 09:37:20:122',8,0.414733,0.025392,-0.016821,-0.022381,-0.017247,0.086767,0.314576,0.043691,0.171859,0.705168,-0.075396,0.118837,0,0.00038,0.156163,0,0.003314,0.121422,0,0.000623,0,0,0,0,0,0,0,0,1,0,0,0,0,0,0
780,'2025/06/17 09:37:20:130',8,0.414733,0.025392,-0.016821,-0.022381,-0.017247,0.086767,0.314576,0.043691,0.171859,0.705168,-0.075396,0.118837,0,0.00038,0.156163,0,0.003314,0.121422,0,0.000623,0,0,0,0,0,0,0,0,1,0,0,0,0,0,0
781,'2025/06/17 09:37:20:137',8,0.414733,0.025392,-0.016821,-0.022381,-0.017247,0.086767,0.314576,0.043691,0.171859,0.705168,-0.075396,0.118837,0,0.00038,0.156163,0,0.003314,0.121422,0,0.000623,0,0,0,0,0,0,0,0,1,0,0,0,0,0,0
782,'2025/06/17 09:37:20:145',8,0.414733,0.025392,-0.016821,-0.022381,-0.017247,0.086767,0.314576,0.043691,0.171859,0.705168,-0.075396,0.118837,0,0.00038,0.156163,0,0.003314,0.121422,0,0.000623,0,0,0,0,0,0,0,0,1,0,0,0,0,0,0
783,'2025/06/17 09:37:20:153',8,0.414733,0.025392,-0.016821,-0.022381,-0.017247,0.086767,0.314576,0.043691,0.171859,0.705168,-0.075396,0.118837,0,0.00038,0.156163,0,0.003314,0.121422,0,0.000623,0,0,0,0,0,0,0,0,1,0,0,0,0,0,0
784,'2025/06/17 09:37:20:160',8,0.414733,0.025392,-0.016821,-0.022381,-0.017247,0.086767,0.314576,0.043691,0.171859,0.705168,-0.075396,0.118837,0,0.00038,0.156163,0,0.003314,0.121422,0,0.000623,0,0,0,0,0,0,0,0,1,0,0,0,0,0,0
785,'2025/06/17 09:37:20:167',8,0.414733,0.025392,-0.016821,-0.022381,-0.017247,0.086767,0.314576,0.043691,0.171859,0.705168,-0.075396,0.118837,0,0.00038,0.156163,0,0.003314,0.121422,0,0.000623,0,0,0,0,0,0,0,0,1,0,0,0,0,0,0
786,'2025/06/17 09:37:20:174',8,0.414733,0.025392,-0.016821,-0.022381,-0.017247,0.086767,0.314576,0.043691,0.171859,0.705168,-0.075396,0.118837,0,0.00038,0.156163,0,0.003314,0.121422,0,0.000623,0,0,0,0,0,0,0,0,1,0,0,0,0,0,0
787,'2025/06/17 09:37:20:181',8,0.414733,0.025392,-0.016821,-0.022381,-0.017247,0.086767,0.314576,0.043691,0.171859,0.705168,-0.075396,0.118837,0,0.00038,0.156163,0,0.003314,0.121422,0,0.000623,0,0,0,0,0,0,0,0,1,0,0,0,0,0,0
788,'2025/06/17 09:37:20:187',8,0.414733,0.025392,-0.016821,-0.022381,-0.017247,0.086767,0.314576,0.043691,0.171859,0.705168,-0.075396,0.118837,0,0.00038,0.156163,0,0.003314,0.121422,0,0.000623,0,0,0,0,0,0,0,0,1,0,0,0,0,0,0
789,'2025/06/17 09:37:20:192',8,0.414733,0.025392,-0.016821,-0.022381,-0.017247,0.086767,0.314576,0.043691,0.171859,0.705168,-0.075396,0.118837,0,0.00038,0.156163,0,0.003314,0.121422,0,0.000623,0,0,0,0,0,0,0,0,1,0,0,0,0,0,0
790,'2025/06/17 09:37:20:201',8,0.414733,0.025392,-0.016821,-0.022381,-0.017247,0.086767,0.314576,0.043691,0.171859,0.705168,-0.075396,0.118837,0,0.00038,0.156163,0,0.003314,0.121422,0,0.000623,0,0,0,0,0,0,0,0,1,0,0,0,0,0,0
791,'2025/06/17 09:37:20:209',8,0.414733,0.025392,-0.016821,-0.022381,-0.017247,0.086767,0.314576,0.043691,0.171859,0.705168,-0.075396,0.118837,0,0.00038,0.156163,0,0.003314,0.121422,0,0.000623,0,0,0,0,0,0,0,0,1,0,0,0,0,0,0
792,'2025/06/17 09:37:20:217',8,0.414733,0.025392,-0.016821,-0.022381,-0.017247,0.086767,0.314576,0.043691,0.171859,0.705168,-0.075396,0.118837,0,0.00038,0.156163,0,0.003314,0.121422,0,0.000623,0,0,0,0,0,0,0,0,1,0,0,0,0,0,0
793,'2025/06/17 09:37:20:223',8,0.414733,0.025392,-0.016821,-0.022381,-0.017247,0.086767,0.314576,0.043691,0.171859,0.705168,-0.075396,0.118837,0,0.00038,0.156163,0,0.003314,0.121422,0,0.000623,0,0,0,0,0,0,0,0,1,0,0,0,0,0,0
794,'2025/06/17 09:37:20:231',8,0.414733,0.025392,-0.016821,-0.022381,-0.017247,0.086767,0.314576,0.043691,0.171859,0.705168,-0.075396,0.118837,0,0.00038,0.156163,0,0.003314,0.121422,0,0.000623,0,0,0,0,0,0,0,0,1,0,0,0,0,0,0
795,'2025/06/17 09:37:20:238',8,0.414733,0.025392,-0.016821,-0.022381,-0.017247,0.086767,0.314576,0.043691,0.171859,0.705168,-0.075396,0.118837,0,0.00038,0.156163,0,0.003314,0.121422,0,0.000623,0,0,0,0,0,0,0,0,1,0,0,0,0,0,0
796,'2025/06/17 09:37:20:245',8,0.414733,0.025392,-0.016821,-0.022381,-0.017247,0.086767,0.314576,0.043691,0.171859,0.705168,-0.075396,0.118837,0,0.00038,0.156163,0,0.003314,0.121422,0,0.000623,0,0,0,0,0,0,0,0,1,0,0,0,0,0,0
797,'2025/06/17 09:37:20:251',8,0.414733,0.025392,-0.016821,-0.022381,-0.017247,0.086767,0.314576,0.043691,0.171859,0.705168,-0.075396,0.118837,0,0.00038,0.156163,0,0.003314,0.121422,0,0.000623,0,0,0,0,0,0,0,0,1,0,0,0,0,0,0
798,'2025/06/17 09:37:20:256',8,0.414733,0.025392,-0.016821,-0.022381,-0.017247,0.086767,0.314576,0.043691,0.171859,0.705168,-0.075396,0.118837,0,0.00038,0.156163,0,0.003314,0.121422,0,0.000623,0,0,0,0,0,0,0,0,1,0,0,0,0,0,0
799,'2025/06/17 09:37:20:265',8,0.414733,0.025392,-0.016821,-0.022381,-0.017247,0.086767,0.314576,0.043691,0.171859,0.705168,-0.075396,0.118837,0,0.00038,0.156163,0,0.003314,0.121422,0,0.000623,0,0,0,0,0,0,0,0,1,0,0,0,0,0,0
800,'2025/06/17 09:37:20:272',8,0.414733,0.025392,-0.016821,-0.022381,-0.017247,0.086767,0.314576,0.043691,0.171859,0.705168,-0.075396,0.118837,0,0.00038,0.156163,0,0.003314,0.121422,0,0.000623,0,0,0,0,0,0,0,0,1,0,0,0,0,0,0
801,'2025/06/17 09:37:20:279',8,0.414733,0.025392,-0.016821,-0.022381,-0.017247,0.086767,0.314576,0.043691,0.171859,0.705168,-0.075396,0.118837,0,0.00038,0.156163,0,0.003314,0.121422,0,0.000623,0,0,0,0,0,0,0,0,1,0,0,0,0,0,0
802,'2025/06/17 09:37:20:287',8,0.414733,0.025392,-0.016821,-0.022381,-0.017247,0.086767,0.314576,0.043691,0.171859,0.705168,-0.075396,0.118837,0,0.00038,0.156163,0,0.003314,0.121422,0,0.000623,0,0,0,0,0,0,0,0,1,0,0,0,0,0,0
803,'2025/06/17 09:37:20:293',8,0.414733,0.025392,-0.016821,-0.022381,-0.017247,0.086767,0.314576,0.043691,0.171859,0.705168,-0.075396,0.118837,0,0.00038,0.156163,0,0.003314,0.121422,0,0.000623,0,0,0,0,0,0,0,0,1,0,0,0,0,0,0
804,'2025/06/17 09:37:20:301',8,0.414733,0.025392,-0.016821,-0.022381,-0.017247,0.086767,0.314576,0.043691,0.171859,0.705168,-0.075396,0.118837,0,0.00038,0.156163,0,0.003314,0.121422,0,0.000623,0,0,0,0,0,0,0,0,1,0,0,0,0,0,0
805,'2025/06/17 09:37:20:307',8,0.414733,0.025392,-0.016821,-0.022381,-0.017247,0.086767,0.314576,0.043691,0.171859,0.705168,-0.075396,0.118837,0,0.00038,0.156163,0,0.003314,0.121422,0,0.000623,0,0,0,0,0,0,0,0,1,0,0,0,0,0,0
806,'2025/06/17 09:37:20:312',8,0.414733,0.025392,-0.016821,-0.022381,-0.017247,0.086767,0.314576,0.043691,0.171859,0.705168,-0.075396,0.118837,0,0.00038,0.156163,0,0.003314,0.121422,0,0.000623,0,0,0,0,0,0,0,0,1,0,0,0,0,0,0
807,'2025/06/17 09:37:20:319',8,0.414733,0.025392,-0.016821,-0.022381,-0.017247,0.086767,0.314576,0.043691,0.171859,0.705168,-0.075396,0.118837,0,0.00038,0.156163,0,0.003314,0.121422,0,0.000623,0,0,0,0,0,0,0,0,1,0,0,0,0,0,0
808,'2025/06/17 09:37:20:326',8,0.414733,0.025392,-0.016821,-0.022381,-0.017247,0.086767,0.314576,0.043691,0.171859,0.705168,-0.075396,0.118837,0,0.00038,0.156163,0,0.003314,0.121422,0,0.000623,0,0,0,0,0,0,0,0,1,0,0,0,0,0,0
809,'2025/06/17 09:37:20:332',8,0.414733,0.025392,-0.016821,-0.022381,-0.017247,0.086767,0.314576,0.043691,0.171859,0.705168,-0.075396,0.118837,0,0.00038,0.156163,0,0.003314,0.121422,0,0.000623,0,0,0,0,0,0,0,0,1,0,0,0,0,0,0
810,'2025/06/17 09:37:20:338',8,0.414733,0.025392,-0.016821,-0.022381,-0.017247,0.086767,0.314576,0.043691,0.171859,0.705168,-0.075396,0.118837,0,0.00038,0.156163,0,0.003314,0.121422,0,0.000623,0,0,0,0,0,0,0,0,1,0,0,0,0,0,0
811,'2025/06/17 09:38:28:138',9,0.279785,0.016472,-0.114925,-0.083371,-0.081596,0.195217,0.488352,0.471965,0.770761,0.677297,-0.068278,0.816412,0.583325,0.044114,0.746989,0.652835,0.013957,0.748097,0.716678,0.005885,0,0,0,0,0,0,0,0,0,1,0,0,0,0,0
812,'2025/06/17 09:38:28:145',9,0.279785,0.016472,-0.114925,-0.083371,-0.081596,0.195217,0.488352,0.471965,0.770761,0.677297,-0.068278,0.816412,0.583325,0.044114,0.746989,0.652835,0.013957,0.748097,0.716678,0.005885,0,0,0,0,0,0,0,0,0,1,0,0,0,0,0
813,'2025/06/17 09:38:28:151',9,0.279785,0.016472,-0.114925,-0.083371,-0.081596,0.195217,0.488352,0.471965,0.770761,0.677297,-0.068278,0.816412,0.583325,0.044114,0.746989,0.652835,0.013957,0.748097,0.716678,0.005885,0,0,0,0,0,0,0,0,0,1,0,0,0,0,0
814,'2025/06/17 09:38:28:158',9,0.279785,0.016472,-0.114925,-0.083371,-0.081596,0.195217,0.488352,0.471965,0.770761,0.677297,-0.068278,0.816412,0.583325,0.044114,0.746989,0.652835,0.013957,0.748097,0.716678,0.005885,0,0,0,0,0,0,0,0,0,1,0,0,0,0,0
815,'2025/06/17 09:38:28:165',9,0.279785,0.016472,-0.114925,-0.083371,-0.081596,0.195217,0.488352,0.471965,0.770761,0.677297,-0.068278,0.816412,0.583325,0.044114,0.746989,0.652835,0.013957,0.748097,0.716678,0.005885,0,0,0,0,0,0,0,0,0,1,0,0,0,0,0
816,'2025/06/17 09:38:28:172',9,0.279785,0.016472,-0.114925,-0.083371,-0.081596,0.195217,0.488352,0.471965,0.770761,0.677297,-0.068278,0.816412,0.583325,0.044114,0.746989,0.652835,0.013957,0.748097,0.716678,0.005885,0,0,0,0,0,0,0,0,0,1,0,0,0,0,0
817,'2025/06/17 09:38:28:180',9,0.279785,0.016472,-0.114925,-0.083371,-0.081596,0.195217,0.488352,0.471965,0.770761,0.677297,-0.068278,0.816412,0.583325,0.044114,0.746989,0.652835,0.013957,0.748097,0.716678,0.005885,0,0,0,0,0,0,0,0,0,1,0,0,0,0,0
818,'2025/06/17 09:38:28:187',9,0.279785,0.016472,-0.114925,-0.083371,-0.081596,0.195217,0.488352,0.471965,0.770761,0.677297,-0.068278,0.816412,0.583325,0.044114,0.746989,0.652835,0.013957,0.748097,0.716678,0.005885,0,0,0,0,0,0,0,0,0,1,0,0,0,0,0
819,'2025/06/17 09:38:28:194',9,0.279785,0.016472,-0.114925,-0.083371,-0.081596,0.195217,0.488352,0.471965,0.770761,0.677297,-0.068278,0.816412,0.583325,0.044114,0.746989,0.652835,0.013957,0.748097,0.716678,0.005885,0,0,0,0,0,0,0,0,0,1,0,0,0,0,0
820,'2025/06/17 09:38:28:201',9,0.279785,0.016472,-0.114925,-0.083371,-0.081596,0.195217,0.488352,0.471965,0.770761,0.677297,-0.068278,0.816412,0.583325,0.044114,0.746989,0.652835,0.013957,0.748097,0.716678,0.005885,0,0,0,0,0,0,0,0,0,1,0,0,0,0,0
821,'2025/06/17 09:38:28:207',9,0.279785,0.016472,-0.114925,-0.083371,-0.081596,0.195217,0.488352,0.471965,0.770761,0.677297,-0.068278,0.816412,0.583325,0.044114,0.746989,0.652835,0.013957,0.748097,0.716678,0.005885,0,0,0,0,0,0,0,0,0,1,0,0,0,0,0
822,'2025/06/17 09:38:28:214',9,0.279785,0.016472,-0.114925,-0.083371,-0.081596,0.195217,0.488352,0.471965,0.770761,0.677297,-0.068278,0.816412,0.583325,0.044114,0.746989,0.652835,0.013957,0.748097,0.716678,0.005885,0,0,0,0,0,0,0,0,0,1,0,0,0,0,0
823,'2025/06/17 09:38:28:221',9,0.279785,0.016472,-0.114925,-0.083371,-0.081596,0.195217,0.488352,0.471965,0.770761,0.677297,-0.068278,0.816412,0.583325,0.044114,0.746989,0.652835,0.013957,0.748097,0.716678,0.005885,0,0,0,0,0,0,0,0,0,1,0,0,0,0,0
824,'2025/06/17 09:38:28:227',9,0.279785,0.016472,-0.114925,-0.083371,-0.081596,0.195217,0.488352,0.471965,0.770761,0.677297,-0.068278,0.816412,0.583325,0.044114,0.746989,0.652835,0.013957,0.748097,0.716678,0.005885,0,0,0,0,0,0,0,0,0,1,0,0,0,0,0
825,'2025/06/17 09:38:28:233',9,0.279785,0.016472,-0.114925,-0.083371,-0.081596,0.195217,0.488352,0.471965,0.770761,0.677297,-0.068278,0.816412,0.583325,0.044114,0.746989,0.652835,0.013957,0.748097,0.716678,0.005885,0,0,0,0,0,0,0,0,0,1,0,0,0,0,0
826,'2025/06/17 09:38:28:241',9,0.279785,0.016472,-0.114925,-0.083371,-0.081596,0.195217,0.488352,0.471965,0.770761,0.677297,-0.068278,0.816412,0.583325,0.044114,0.746989,0.652835,0.013957,0.748097,0.716678,0.005885,0,0,0,0,0,0,0,0,0,1,0,0,0,0,0
827,'2025/06/17 09:38:28:248',9,0.279785,0.016472,-0.114925,-0.083371,-0.081596,0.195217,0.488352,0.471965,0.770761,0.677297,-0.068278,0.816412,0.583325,0.044114,0.746989,0.652835,0.013957,0.748097,0.716678,0.005885,0,0,0,0,0,0,0,0,0,1,0,0,0,0,0
828,'2025/06/17 09:38:28:255',9,0.279785,0.016472,-0.114925,-0.083371,-0.081596,0.195217,0.488352,0.471965,0.770761,0.677297,-0.068278,0.816412,0.583325,0.044114,0.746989,0.652835,0.013957,0.748097,0.716678,0.005885,0,0,0,0,0,0,0,0,0,1,0,0,0,0,0
829,'2025/06/17 09:38:28:263',9,0.279785,0.016472,-0.114925,-0.083371,-0.081596,0.195217,0.488352,0.471965,0.770761,0.677297,-0.068278,0.816412,0.583325,0.044114,0.746989,0.652835,0.013957,0.748097,0.716678,0.005885,0,0,0,0,0,0,0,0,0,1,0,0,0,0,0
830,'2025/06/17 09:38:28:268',9,0.279785,0.016472,-0.114925,-0.083371,-0.081596,0.195217,0.488352,0.471965,0.770761,0.677297,-0.068278,0.816412,0.583325,0.044114,0.746989,0.652835,0.013957,0.748097,0.716678,0.005885,0,0,0,0,0,0,0,0,0,1,0,0,0,0,0
831,'2025/06/17 09:38:28:273',9,0.279785,0.016472,-0.114925,-0.083371,-0.081596,0.195217,0.488352,0.471965,0.770761,0.677297,-0.068278,0.816412,0.583325,0.044114,0.746989,0.652835,0.013957,0.748097,0.716678,0.005885,0,0,0,0,0,0,0,0,0,1,0,0,0,0,0
832,'2025/06/17 09:38:28:281',9,0.279785,0.016472,-0.114925,-0.083371,-0.081596,0.195217,0.488352,0.471965,0.770761,0.677297,-0.068278,0.816412,0.583325,0.044114,0.746989,0.652835,0.013957,0.748097,0.716678,0.005885,0,0,0,0,0,0,0,0,0,1,0,0,0,0,0
833,'2025/06/17 09:38:28:288',9,0.279785,0.016472,-0.114925,-0.083371,-0.081596,0.195217,0.488352,0.471965,0.770761,0.677297,-0.068278,0.816412,0.583325,0.044114,0.746989,0.652835,0.013957,0.748097,0.716678,0.005885,0,0,0,0,0,0,0,0,0,1,0,0,0,0,0
834,'2025/06/17 09:38:28:294',9,0.279785,0.016472,-0.114925,-0.083371,-0.081596,0.195217,0.488352,0.471965,0.770761,0.677297,-0.068278,0.816412,0.583325,0.044114,0.746989,0.652835,0.013957,0.748097,0.716678,0.005885,0,0,0,0,0,0,0,0,0,1,0,0,0,0,0
835,'2025/06/17 09:38:28:301',9,0.279785,0.016472,-0.114925,-0.083371,-0.081596,0.195217,0.488352,0.471965,0.770761,0.677297,-0.068278,0.816412,0.583325,0.044114,0.746989,0.652835,0.013957,0.748097,0.716678,0.005885,0,0,0,0,0,0,0,0,0,1,0,0,0,0,0
836,'2025/06/17 09:38:28:306',9,0.279785,0.016472,-0.114925,-0.083371,-0.081596,0.195217,0.488352,0.471965,0.770761,0.677297,-0.068278,0.816412,0.583325,0.044114,0.746989,0.652835,0.013957,0.748097,0.716678,0.005885,0,0,0,0,0,0,0,0,0,1,0,0,0,0,0
837,'2025/06/17 09:38:28:312',9,0.279785,0.016472,-0.114925,-0.083371,-0.081596,0.195217,0.488352,0.471965,0.770761,0.677297,-0.068278,0.816412,0.583325,0.044114,0.746989,0.652835,0.013957,0.748097,0.716678,0.005885,0,0,0,0,0,0,0,0,0,1,0,0,0,0,0
838,'2025/06/17 09:38:28:319',9,0.279785,0.016472,-0.114925,-0.083371,-0.081596,0.195217,0.488352,0.471965,0.770761,0.677297,-0.068278,0.816412,0.583325,0.044114,0.746989,0.652835,0.013957,0.748097,0.716678,0.005885,0,0,0,0,0,0,0,0,0,1,0,0,0,0,0
839,'2025/06/17 09:38:28:326',9,0.279785,0.016472,-0.114925,-0.083371,-0.081596,0.195217,0.488352,0.471965,0.770761,0.677297,-0.068278,0.816412,0.583325,0.044114,0.746989,0.652835,0.013957,0.748097,0.716678,0.005885,0,0,0,0,0,0,0,0,0,1,0,0,0,0,0
840,'2025/06/17 09:38:28:332',9,0.279785,0.016472,-0.114925,-0.083371,-0.081596,0.195217,0.488352,0.471965,0.770761,0.677297,-0.068278,0.816412,0.583325,0.044114,0.746989,0.652835,0.013957,0.748097,0.716678,0.005885,0,0,0,0,0,0,0,0,0,1,0,0,0,0,0
841,'2025/06/17 09:38:28:341',9,0.279785,0.016472,-0.114925,-0.083371,-0.081596,0.195217,0.488352,0.471965,0.770761,0.677297,-0.068278,0.816412,0.583325,0.044114,0.746989,0.652835,0.013957,0.748097,0.716678,0.005885,0,0,0,0,0,0,0,0,0,1,0,0,0,0,0
842,'2025/06/17 09:38:28:347',9,0.279785,0.016472,-0.114925,-0.083371,-0.081596,0.195217,0.488352,0.471965,0.770761,0.677297,-0.068278,0.816412,0.583325,0.044114,0.746989,0.652835,0.013957,0.748097,0.716678,0.005885,0,0,0,0,0,0,0,0,0,1,0,0,0,0,0
843,'2025/06/17 09:38:28:354',9,0.279785,0.016472,-0.114925,-0.083371,-0.081596,0.195217,0.488352,0.471965,0.770761,0.677297,-0.068278,0.816412,0.583325,0.044114,0.746989,0.652835,0.013957,0.748097,0.716678,0.005885,0,0,0,0,0,0,0,0,0,1,0,0,0,0,0
844,'2025/06/17 09:38:28:361',9,0.279785,0.016472,-0.114925,-0.083371,-0.081596,0.195217,0.488352,0.471965,0.770761,0.677297,-0.068278,0.816412,0.583325,0.044114,0.746989,0.652835,0.013957,0.748097,0.716678,0.005885,0,0,0,0,0,0,0,0,0,1,0,0,0,0,0
845,'2025/06/17 09:38:28:368',9,0.279785,0.016472,-0.114925,-0.083371,-0.081596,0.195217,0.488352,0.471965,0.770761,0.677297,-0.068278,0.816412,0.583325,0.044114,0.746989,0.652835,0.013957,0.748097,0.716678,0.005885,0,0,0,0,0,0,0,0,0,1,0,0,0,0,0
846,'2025/06/17 09:38:28:374',9,0.279785,0.016472,-0.114925,-0.083371,-0.081596,0.195217,0.488352,0.471965,0.770761,0.677297,-0.068278,0.816412,0.583325,0.044114,0.746989,0.652835,0.013957,0.748097,0.716678,0.005885,0,0,0,0,0,0,0,0,0,1,0,0,0,0,0
847,'2025/06/17 09:38:28:382',9,0.279785,0.016472,-0.114925,-0.083371,-0.081596,0.195217,0.488352,0.471965,0.770761,0.677297,-0.068278,0.816412,0.583325,0.044114,0.746989,0.652835,0.013957,0.748097,0.716678,0.005885,0,0,0,0,0,0,0,0,0,1,0,0,0,0,0
848,'2025/06/17 09:38:28:389',9,0.279785,0.016472,-0.114925,-0.083371,-0.081596,0.195217,0.488352,0.471965,0.770761,0.677297,-0.068278,0.816412,0.583325,0.044114,0.746989,0.652835,0.013957,0.748097,0.716678,0.005885,0,0,0,0,0,0,0,0,0,1,0,0,0,0,0
849,'2025/06/17 09:38:28:394',9,0.279785,0.016472,-0.114925,-0.083371,-0.081596,0.195217,0.488352,0.471965,0.770761,0.677297,-0.068278,0.816412,0.583325,0.044114,0.746989,0.652835,0.013957,0.748097,0.716678,0.005885,0,0,0,0,0,0,0,0,0,1,0,0,0,0,0
850,'2025/06/17 09:38:28:402',9,0.279785,0.016472,-0.114925,-0.083371,-0.081596,0.195217,0.488352,0.471965,0.770761,0.677297,-0.068278,0.816412,0.583325,0.044114,0.746989,0.652835,0.013957,0.748097,0.716678,0.005885,0,0,0,0,0,0,0,0,0,1,0,0,0,0,0
851,'2025/06/17 09:38:28:409',9,0.279785,0.016472,-0.114925,-0.083371,-0.081596,0.195217,0.488352,0.471965,0.770761,0.677297,-0.068278,0.816412,0.583325,0.044114,0.746989,0.652835,0.013957,0.748097,0.716678,0.005885,0,0,0,0,0,0,0,0,0,1,0,0,0,0,0
852,'2025/06/17 09:38:28:416',9,0.279785,0.016472,-0.114925,-0.083371,-0.081596,0.195217,0.488352,0.471965,0.770761,0.677297,-0.068278,0.816412,0.583325,0.044114,0.746989,0.652835,0.013957,0.748097,0.716678,0.005885,0,0,0,0,0,0,0,0,0,1,0,0,0,0,0
853,'2025/06/17 09:38:28:423',9,0.279785,0.016472,-0.114925,-0.083371,-0.081596,0.195217,0.488352,0.471965,0.770761,0.677297,-0.068278,0.816412,0.583325,0.044114,0.746989,0.652835,0.013957,0.748097,0.716678,0.005885,0,0,0,0,0,0,0,0,0,1,0,0,0,0,0
854,'2025/06/17 09:38:28:430',9,0.279785,0.016472,-0.114925,-0.083371,-0.081596,0.195217,0.488352,0.471965,0.770761,0.677297,-0.068278,0.816412,0.583325,0.044114,0.746989,0.652835,0.013957,0.748097,0.716678,0.005885,0,0,0,0,0,0,0,0,0,1,0,0,0,0,0
855,'2025/06/17 09:38:28:436',9,0.279785,0.016472,-0.114925,-0.083371,-0.081596,0.195217,0.488352,0.471965,0.770761,0.677297,-0.068278,0.816412,0.583325,0.044114,0.746989,0.652835,0.013957,0.748097,0.716678,0.005885,0,0,0,0,0,0,0,0,0,1,0,0,0,0,0
856,'2025/06/17 09:38:28:444',9,0.279785,0.016472,-0.114925,-0.083371,-0.081596,0.195217,0.488352,0.471965,0.770761,0.677297,-0.068278,0.816412,0.583325,0.044114,0.746989,0.652835,0.013957,0.748097,0.716678,0.005885,0,0,0,0,0,0,0,0,0,1,0,0,0,0,0
857,'2025/06/17 09:38:28:451',9,0.279785,0.016472,-0.114925,-0.083371,-0.081596,0.195217,0.488352,0.471965,0.770761,0.677297,-0.068278,0.816412,0.583325,0.044114,0.746989,0.652835,0.013957,0.748097,0.716678,0.005885,0,0,0,0,0,0,0,0,0,1,0,0,0,0,0
858,'2025/06/17 09:38:28:456',9,0.279785,0.016472,-0.114925,-0.083371,-0.081596,0.195217,0.488352,0.471965,0.770761,0.677297,-0.068278,0.816412,0.583325,0.044114,0.746989,0.652835,0.013957,0.748097,0.716678,0.005885,0,0,0,0,0,0,0,0,0,1,0,0,0,0,0
859,'2025/06/17 09:38:28:463',9,0.279785,0.016472,-0.114925,-0.083371,-0.081596,0.195217,0.488352,0.471965,0.770761,0.677297,-0.068278,0.816412,0.583325,0.044114,0.746989,0.652835,0.013957,0.748097,0.716678,0.005885,0,0,0,0,0,0,0,0,0,1,0,0,0,0,0
860,'2025/06/17 09:38:28:469',9,0.279785,0.016472,-0.114925,-0.083371,-0.081596,0.195217,0.488352,0.471965,0.770761,0.677297,-0.068278,0.816412,0.583325,0.044114,0.746989,0.652835,0.013957,0.748097,0.716678,0.005885,0,0,0,0,0,0,0,0,0,1,0,0,0,0,0
861,'2025/06/17 09:38:28:477',9,0.279785,0.016472,-0.114925,-0.083371,-0.081596,0.195217,0.488352,0.471965,0.770761,0.677297,-0.068278,0.816412,0.583325,0.044114,0.746989,0.652835,0.013957,0.748097,0.716678,0.005885,0,0,0,0,0,0,0,0,0,1,0,0,0,0,0
862,'2025/06/17 09:38:28:483',9,0.279785,0.016472,-0.114925,-0.083371,-0.081596,0.195217,0.488352,0.471965,0.770761,0.677297,-0.068278,0.816412,0.583325,0.044114,0.746989,0.652835,0.013957,0.748097,0.716678,0.005885,0,0,0,0,0,0,0,0,0,1,0,0,0,0,0
863,'2025/06/17 09:38:28:489',9,0.279785,0.016472,-0.114925,-0.083371,-0.081596,0.195217,0.488352,0.471965,0.770761,0.677297,-0.068278,0.816412,0.583325,0.044114,0.746989,0.652835,0.013957,0.748097,0.716678,0.005885,0,0,0,0,0,0,0,0,0,1,0,0,0,0,0
864,'2025/06/17 09:38:28:496',9,0.279785,0.016472,-0.114925,-0.083371,-0.081596,0.195217,0.488352,0.471965,0.770761,0.677297,-0.068278,0.816412,0.583325,0.044114,0.746989,0.652835,0.013957,0.748097,0.716678,0.005885,0,0,0,0,0,0,0,0,0,1,0,0,0,0,0
865,'2025/06/17 09:38:28:503',9,0.279785,0.016472,-0.114925,-0.083371,-0.081596,0.195217,0.488352,0.471965,0.770761,0.677297,-0.068278,0.816412,0.583325,0.044114,0.746989,0.652835,0.013957,0.748097,0.716678,0.005885,0,0,0,0,0,0,0,0,0,1,0,0,0,0,0
866,'2025/06/17 09:38:28:509',9,0.279785,0.016472,-0.114925,-0.083371,-0.081596,0.195217,0.488352,0.471965,0.770761,0.677297,-0.068278,0.816412,0.583325,0.044114,0.746989,0.652835,0.013957,0.748097,0.716678,0.005885,0,0,0,0,0,0,0,0,0,1,0,0,0,0,0
867,'2025/06/17 09:38:28:516',9,0.279785,0.016472,-0.114925,-0.083371,-0.081596,0.195217,0.488352,0.471965,0.770761,0.677297,-0.068278,0.816412,0.583325,0.044114,0.746989,0.652835,0.013957,0.748097,0.716678,0.005885,0,0,0,0,0,0,0,0,0,1,0,0,0,0,0
868,'2025/06/17 09:38:28:523',9,0.279785,0.016472,-0.114925,-0.083371,-0.081596,0.195217,0.488352,0.471965,0.770761,0.677297,-0.068278,0.816412,0.583325,0.044114,0.746989,0.652835,0.013957,0.748097,0.716678,0.005885,0,0,0,0,0,0,0,0,0,1,0,0,0,0,0
869,'2025/06/17 09:38:28:530',9,0.279785,0.016472,-0.114925,-0.083371,-0.081596,0.195217,0.488352,0.471965,0.770761,0.677297,-0.068278,0.816412,0.583325,0.044114,0.746989,0.652835,0.013957,0.748097,0.716678,0.005885,0,0,0,0,0,0,0,0,0,1,0,0,0,0,0
870,'2025/06/17 09:38:28:537',9,0.279785,0.016472,-0.114925,-0.083371,-0.081596,0.195217,0.488352,0.471965,0.770761,0.677297,-0.068278,0.816412,0.583325,0.044114,0.746989,0.652835,0.013957,0.748097,0.716678,0.005885,0,0,0,0,0,0,0,0,0,1,0,0,0,0,0
871,'2025/06/17 09:38:28:546',9,0.279785,0.016472,-0.114925,-0.083371,-0.081596,0.195217,0.488352,0.471965,0.770761,0.677297,-0.068278,0.816412,0.583325,0.044114,0.746989,0.652835,0.013957,0.748097,0.716678,0.005885,0,0,0,0,0,0,0,0,0,1,0,0,0,0,0
872,'2025/06/17 09:38:28:553',9,0.279785,0.016472,-0.114925,-0.083371,-0.081596,0.195217,0.488352,0.471965,0.770761,0.677297,-0.068278,0.816412,0.583325,0.044114,0.746989,0.652835,0.013957,0.748097,0.716678,0.005885,0,0,0,0,0,0,0,0,0,1,0,0,0,0,0
873,'2025/06/17 09:38:28:560',9,0.279785,0.016472,-0.114925,-0.083371,-0.081596,0.195217,0.488352,0.471965,0.770761,0.677297,-0.068278,0.816412,0.583325,0.044114,0.746989,0.652835,0.013957,0.748097,0.716678,0.005885,0,0,0,0,0,0,0,0,0,1,0,0,0,0,0
874,'2025/06/17 09:38:28:566',9,0.279785,0.016472,-0.114925,-0.083371,-0.081596,0.195217,0.488352,0.471965,0.770761,0.677297,-0.068278,0.816412,0.583325,0.044114,0.746989,0.652835,0.013957,0.748097,0.716678,0.005885,0,0,0,0,0,0,0,0,0,1,0,0,0,0,0
875,'2025/06/17 09:38:28:572',9,0.279785,0.016472,-0.114925,-0.083371,-0.081596,0.195217,0.488352,0.471965,0.770761,0.677297,-0.068278,0.816412,0.583325,0.044114,0.746989,0.652835,0.013957,0.748097,0.716678,0.005885,0,0,0,0,0,0,0,0,0,1,0,0,0,0,0
876,'2025/06/17 09:38:28:579',9,0.279785,0.016472,-0.114925,-0.083371,-0.081596,0.195217,0.488352,0.471965,0.770761,0.677297,-0.068278,0.816412,0.583325,0.044114,0.746989,0.652835,0.013957,0.748097,0.716678,0.005885,0,0,0,0,0,0,0,0,0,1,0,0,0,0,0
877,'2025/06/17 09:38:28:585',9,0.279785,0.016472,-0.114925,-0.083371,-0.081596,0.195217,0.488352,0.471965,0.770761,0.677297,-0.068278,0.816412,0.583325,0.044114,0.746989,0.652835,0.013957,0.748097,0.716678,0.005885,0,0,0,0,0,0,0,0,0,1,0,0,0,0,0
878,'2025/06/17 09:38:28:592',9,0.279785,0.016472,-0.114925,-0.083371,-0.081596,0.195217,0.488352,0.471965,0.770761,0.677297,-0.068278,0.816412,0.583325,0.044114,0.746989,0.652835,0.013957,0.748097,0.716678,0.005885,0,0,0,0,0,0,0,0,0,1,0,0,0,0,0
879,'2025/06/17 09:38:28:597',9,0.279785,0.016472,-0.114925,-0.083371,-0.081596,0.195217,0.488352,0.471965,0.770761,0.677297,-0.068278,0.816412,0.583325,0.044114,0.746989,0.652835,0.013957,0.748097,0.716678,0.005885,0,0,0,0,0,0,0,0,0,1,0,0,0,0,0
880,'2025/06/17 09:38:28:604',9,0.279785,0.016472,-0.114925,-0.083371,-0.081596,0.195217,0.488352,0.471965,0.770761,0.677297,-0.068278,0.816412,0.583325,0.044114,0.746989,0.652835,0.013957,0.748097,0.716678,0.005885,0,0,0,0,0,0,0,0,0,1,0,0,0,0,0
881,'2025/06/17 09:38:28:611',9,0.279785,0.016472,-0.114925,-0.083371,-0.081596,0.195217,0.488352,0.471965,0.770761,0.677297,-0.068278,0.816412,0.583325,0.044114,0.746989,0.652835,0.013957,0.748097,0.716678,0.005885,0,0,0,0,0,0,0,0,0,1,0,0,0,0,0
882,'2025/06/17 09:38:28:618',9,0.279785,0.016472,-0.114925,-0.083371,-0.081596,0.195217,0.488352,0.471965,0.770761,0.677297,-0.068278,0.816412,0.583325,0.044114,0.746989,0.652835,0.013957,0.748097,0.716678,0.005885,0,0,0,0,0,0,0,0,0,1,0,0,0,0,0
883,'2025/06/17 09:38:28:625',9,0.279785,0.016472,-0.114925,-0.083371,-0.081596,0.195217,0.488352,0.471965,0.770761,0.677297,-0.068278,0.816412,0.583325,0.044114,0.746989,0.652835,0.013957,0.748097,0.716678,0.005885,0,0,0,0,0,0,0,0,0,1,0,0,0,0,0
884,'2025/06/17 09:38:28:631',9,0.279785,0.016472,-0.114925,-0.083371,-0.081596,0.195217,0.488352,0.471965,0.770761,0.677297,-0.068278,0.816412,0.583325,0.044114,0.746989,0.652835,0.013957,0.748097,0.716678,0.005885,0,0,0,0,0,0,0,0,0,1,0,0,0,0,0
885,'2025/06/17 09:38:28:637',9,0.279785,0.016472,-0.114925,-0.083371,-0.081596,0.195217,0.488352,0.471965,0.770761,0.677297,-0.068278,0.816412,0.583325,0.044114,0.746989,0.652835,0.013957,0.748097,0.716678,0.005885,0,0,0,0,0,0,0,0,0,1,0,0,0,0,0
886,'2025/06/17 09:38:28:644',9,0.279785,0.016472,-0.114925,-0.083371,-0.081596,0.195217,0.488352,0.471965,0.770761,0.677297,-0.068278,0.816412,0.583325,0.044114,0.746989,0.652835,0.013957,0.748097,0.716678,0.005885,0,0,0,0,0,0,0,0,0,1,0,0,0,0,0
887,'2025/06/17 09:38:28:652',9,0.279785,0.016472,-0.114925,-0.083371,-0.081596,0.195217,0.488352,0.471965,0.770761,0.677297,-0.068278,0.816412,0.583325,0.044114,0.746989,0.652835,0.013957,0.748097,0.716678,0.005885,0,0,0,0,0,0,0,0,0,1,0,0,0,0,0
888,'2025/06/17 09:38:28:657',9,0.279785,0.016472,-0.114925,-0.083371,-0.081596,0.195217,0.488352,0.471965,0.770761,0.677297,-0.068278,0.816412,0.583325,0.044114,0.746989,0.652835,0.013957,0.748097,0.716678,0.005885,0,0,0,0,0,0,0,0,0,1,0,0,0,0,0
889,'2025/06/17 09:38:28:664',9,0.279785,0.016472,-0.114925,-0.083371,-0.081596,0.195217,0.488352,0.471965,0.770761,0.677297,-0.068278,0.816412,0.583325,0.044114,0.746989,0.652835,0.013957,0.748097,0.716678,0.005885,0,0,0,0,0,0,0,0,0,1,0,0,0,0,0
890,'2025/06/17 09:38:28:672',9,0.279785,0.016472,-0.114925,-0.083371,-0.081596,0.195217,0.488352,0.471965,0.770761,0.677297,-0.068278,0.816412,0.583325,0.044114,0.746989,0.652835,0.013957,0.748097,0.716678,0.005885,0,0,0,0,0,0,0,0,0,1,0,0,0,0,0
891,'2025/06/17 09:38:28:677',9,0.279785,0.016472,-0.114925,-0.083371,-0.081596,0.195217,0.488352,0.471965,0.770761,0.677297,-0.068278,0.816412,0.583325,0.044114,0.746989,0.652835,0.013957,0.748097,0.716678,0.005885,0,0,0,0,0,0,0,0,0,1,0,0,0,0,0
892,'2025/06/17 09:38:28:685',9,0.279785,0.016472,-0.114925,-0.083371,-0.081596,0.195217,0.488352,0.471965,0.770761,0.677297,-0.068278,0.816412,0.583325,0.044114,0.746989,0.652835,0.013957,0.748097,0.716678,0.005885,0,0,0,0,0,0,0,0,0,1,0,0,0,0,0
893,'2025/06/17 09:38:28:691',9,0.279785,0.016472,-0.114925,-0.083371,-0.081596,0.195217,0.488352,0.471965,0.770761,0.677297,-0.068278,0.816412,0.583325,0.044114,0.746989,0.652835,0.013957,0.748097,0.716678,0.005885,0,0,0,0,0,0,0,0,0,1,0,0,0,0,0
894,'2025/06/17 09:38:28:699',9,0.279785,0.016472,-0.114925,-0.083371,-0.081596,0.195217,0.488352,0.471965,0.770761,0.677297,-0.068278,0.816412,0.583325,0.044114,0.746989,0.652835,0.013957,0.748097,0.716678,0.005885,0,0,0,0,0,0,0,0,0,1,0,0,0,0,0
895,'2025/06/17 09:38:28:706',9,0.279785,0.016472,-0.114925,-0.083371,-0.081596,0.195217,0.488352,0.471965,0.770761,0.677297,-0.068278,0.816412,0.583325,0.044114,0.746989,0.652835,0.013957,0.748097,0.716678,0.005885,0,0,0,0,0,0,0,0,0,1,0,0,0,0,0
896,'2025/06/17 09:38:28:713',9,0.279785,0.016472,-0.114925,-0.083371,-0.081596,0.195217,0.488352,0.471965,0.770761,0.677297,-0.068278,0.816412,0.583325,0.044114,0.746989,0.652835,0.013957,0.748097,0.716678,0.005885,0,0,0,0,0,0,0,0,0,1,0,0,0,0,0
897,'2025/06/17 09:38:28:719',9,0.279785,0.016472,-0.114925,-0.083371,-0.081596,0.195217,0.488352,0.471965,0.770761,0.677297,-0.068278,0.816412,0.583325,0.044114,0.746989,0.652835,0.013957,0.748097,0.716678,0.005885,0,0,0,0,0,0,0,0,0,1,0,0,0,0,0
898,'2025/06/17 09:38:28:728',9,0.279785,0.016472,-0.114925,-0.083371,-0.081596,0.195217,0.488352,0.471965,0.770761,0.677297,-0.068278,0.816412,0.583325,0.044114,0.746989,0.652835,0.013957,0.748097,0.716678,0.005885,0,0,0,0,0,0,0,0,0,1,0,0,0,0,0
899,'2025/06/17 09:38:28:734',9,0.279785,0.016472,-0.114925,-0.083371,-0.081596,0.195217,0.488352,0.471965,0.770761,0.677297,-0.068278,0.816412,0.583325,0.044114,0.746989,0.652835,0.013957,0.748097,0.716678,0.005885,0,0,0,0,0,0,0,0,0,1,0,0,0,0,0
900,'2025/06/17 09:38:28:742',9,0.279785,0.016472,-0.114925,-0.083371,-0.081596,0.195217,0.488352,0.471965,0.770761,0.677297,-0.068278,0.816412,0.583325,0.044114,0.746989,0.652835,0.013957,0.748097,0.716678,0.005885,0,0,0,0,0,0,0,0,0,1,0,0,0,0,0
901,'2025/06/17 09:38:28:749',9,0.279785,0.016472,-0.114925,-0.083371,-0.081596,0.195217,0.488352,0.471965,0.770761,0.677297,-0.068278,0.816412,0.583325,0.044114,0.746989,0.652835,0.013957,0.748097,0.716678,0.005885,0,0,0,0,0,0,0,0,0,1,0,0,0,0,0
902,'2025/06/17 09:38:28:756',9,0.279785,0.016472,-0.114925,-0.083371,-0.081596,0.195217,0.488352,0.471965,0.770761,0.677297,-0.068278,0.816412,0.583325,0.044114,0.746989,0.652835,0.013957,0.748097,0.716678,0.005885,0,0,0,0,0,0,0,0,0,1,0,0,0,0,0
903,'2025/06/17 09:38:28:762',9,0.279785,0.016472,-0.114925,-0.083371,-0.081596,0.195217,0.488352,0.471965,0.770761,0.677297,-0.068278,0.816412,0.583325,0.044114,0.746989,0.652835,0.013957,0.748097,0.716678,0.005885,0,0,0,0,0,0,0,0,0,1,0,0,0,0,0
904,'2025/06/17 09:38:28:768',9,0.279785,0.016472,-0.114925,-0.083371,-0.081596,0.195217,0.488352,0.471965,0.770761,0.677297,-0.068278,0.816412,0.583325,0.044114,0.746989,0.652835,0.013957,0.748097,0.716678,0.005885,0,0,0,0,0,0,0,0,0,1,0,0,0,0,0
905,'2025/06/17 09:38:28:775',9,0.279785,0.016472,-0.114925,-0.083371,-0.081596,0.195217,0.488352,0.471965,0.770761,0.677297,-0.068278,0.816412,0.583325,0.044114,0.746989,0.652835,0.013957,0.748097,0.716678,0.005885,0,0,0,0,0,0,0,0,0,1,0,0,0,0,0
906,'2025/06/17 09:38:28:781',9,0.279785,0.016472,-0.114925,-0.083371,-0.081596,0.195217,0.488352,0.471965,0.770761,0.677297,-0.068278,0.816412,0.583325,0.044114,0.746989,0.652835,0.013957,0.748097,0.716678,0.005885,0,0,0,0,0,0,0,0,0,1,0,0,0,0,0
907,'2025/06/17 09:38:28:787',9,0.279785,0.016472,-0.114925,-0.083371,-0.081596,0.195217,0.488352,0.471965,0.770761,0.677297,-0.068278,0.816412,0.583325,0.044114,0.746989,0.652835,0.013957,0.748097,0.716678,0.005885,0,0,0,0,0,0,0,0,0,1,0,0,0,0,0
908,'2025/06/17 09:38:28:794',9,0.279785,0.016472,-0.114925,-0.083371,-0.081596,0.195217,0.488352,0.471965,0.770761,0.677297,-0.068278,0.816412,0.583325,0.044114,0.746989,0.652835,0.013957,0.748097,0.716678,0.005885,0,0,0,0,0,0,0,0,0,1,0,0,0,0,0
909,'2025/06/17 09:38:28:801',9,0.279785,0.016472,-0.114925,-0.083371,-0.081596,0.195217,0.488352,0.471965,0.770761,0.677297,-0.068278,0.816412,0.583325,0.044114,0.746989,0.652835,0.013957,0.748097,0.716678,0.005885,0,0,0,0,0,0,0,0,0,1,0,0,0,0,0
910,'2025/06/17 09:38:28:807',9,0.279785,0.016472,-0.114925,-0.083371,-0.081596,0.195217,0.488352,0.471965,0.770761,0.677297,-0.068278,0.816412,0.583325,0.044114,0.746989,0.652835,0.013957,0.748097,0.716678,0.005885,0,0,0,0,0,0,0,0,0,1,0,0,0,0,0
911,'2025/06/17 09:38:28:812',9,0.279785,0.016472,-0.114925,-0.083371,-0.081596,0.195217,0.488352,0.471965,0.770761,0.677297,-0.068278,0.816412,0.583325,0.044114,0.746989,0.652835,0.013957,0.748097,0.716678,0.005885,0,0,0,0,0,0,0,0,0,1,0,0,0,0,0
912,'2025/06/17 09:38:28:821',9,0.279785,0.016472,-0.114925,-0.083371,-0.081596,0.195217,0.488352,0.471965,0.770761,0.677297,-0.068278,0.816412,0.583325,0.044114,0.746989,0.652835,0.013957,0.748097,0.716678,0.005885,0,0,0,0,0,0,0,0,0,1,0,0,0,0,0
913,'2025/06/17 09:38:28:827',9,0.279785,0.016472,-0.114925,-0.083371,-0.081596,0.195217,0.488352,0.471965,0.770761,0.677297,-0.068278,0.816412,0.583325,0.044114,0.746989,0.652835,0.013957,0.748097,0.716678,0.005885,0,0,0,0,0,0,0,0,0,1,0,0,0,0,0
914,'2025/06/17 09:38:28:833',9,0.279785,0.016472,-0.114925,-0.083371,-0.081596,0.195217,0.488352,0.471965,0.770761,0.677297,-0.068278,0.816412,0.583325,0.044114,0.746989,0.652835,0.013957,0.748097,0.716678,0.005885,0,0,0,0,0,0,0,0,0,1,0,0,0,0,0
915,'2025/06/17 09:38:28:839',9,0.279785,0.016472,-0.114925,-0.083371,-0.081596,0.195217,0.488352,0.471965,0.770761,0.677297,-0.068278,0.816412,0.583325,0.044114,0.746989,0.652835,0.013957,0.748097,0.716678,0.005885,0,0,0,0,0,0,0,0,0,1,0,0,0,0,0
916,'2025/06/17 09:38:28:846',9,0.279785,0.016472,-0.114925,-0.083371,-0.081596,0.195217,0.488352,0.471965,0.770761,0.677297,-0.068278,0.816412,0.583325,0.044114,0.746989,0.652835,0.013957,0.748097,0.716678,0.005885,0,0,0,0,0,0,0,0,0,1,0,0,0,0,0
917,'2025/06/17 09:38:28:853',9,0.279785,0.016472,-0.114925,-0.083371,-0.081596,0.195217,0.488352,0.471965,0.770761,0.677297,-0.068278,0.816412,0.583325,0.044114,0.746989,0.652835,0.013957,0.748097,0.716678,0.005885,0,0,0,0,0,0,0,0,0,1,0,0,0,0,0
918,'2025/06/17 09:38:28:859',9,0.279785,0.016472,-0.114925,-0.083371,-0.081596,0.195217,0.488352,0.471965,0.770761,0.677297,-0.068278,0.816412,0.583325,0.044114,0.746989,0.652835,0.013957,0.748097,0.716678,0.005885,0,0,0,0,0,0,0,0,0,1,0,0,0,0,0
919,'2025/06/17 09:38:28:867',9,0.279785,0.016472,-0.114925,-0.083371,-0.081596,0.195217,0.488352,0.471965,0.770761,0.677297,-0.068278,0.816412,0.583325,0.044114,0.746989,0.652835,0.013957,0.748097,0.716678,0.005885,0,0,0,0,0,0,0,0,0,1,0,0,0,0,0
920,'2025/06/17 09:38:28:874',9,0.279785,0.016472,-0.114925,-0.083371,-0.081596,0.195217,0.488352,0.471965,0.770761,0.677297,-0.068278,0.816412,0.583325,0.044114,0.746989,0.652835,0.013957,0.748097,0.716678,0.005885,0,0,0,0,0,0,0,0,0,1,0,0,0,0,0
921,'2025/06/17 09:38:28:881',9,0.279785,0.016472,-0.114925,-0.083371,-0.081596,0.195217,0.488352,0.471965,0.770761,0.677297,-0.068278,0.816412,0.583325,0.044114,0.746989,0.652835,0.013957,0.748097,0.716678,0.005885,0,0,0,0,0,0,0,0,0,1,0,0,0,0,0
922,'2025/06/17 09:38:28:887',9,0.279785,0.016472,-0.114925,-0.083371,-0.081596,0.195217,0.488352,0.471965,0.770761,0.677297,-0.068278,0.816412,0.583325,0.044114,0.746989,0.652835,0.013957,0.748097,0.716678,0.005885,0,0,0,0,0,0,0,0,0,1,0,0,0,0,0
923,'2025/06/17 09:38:28:894',9,0.279785,0.016472,-0.114925,-0.083371,-0.081596,0.195217,0.488352,0.471965,0.770761,0.677297,-0.068278,0.816412,0.583325,0.044114,0.746989,0.652835,0.013957,0.748097,0.716678,0.005885,0,0,0,0,0,0,0,0,0,1,0,0,0,0,0
924,'2025/06/17 09:39:26:439',10,0.462988,0.021023,0.004786,0.005887,-0.00869,0.050324,0.360987,0.042242,-0.228235,0.816642,0.014162,-0.388746,0.895614,-0.011569,-0.546757,0.937631,-0.018096,-0.312882,0.927886,-0.031666,0,0,0,0,0,0,0,0,0,0,1,0,0,0,0
925,'2025/06/17 09:39:26:447',10,0.462988,0.021023,0.004786,0.005887,-0.00869,0.050324,0.360987,0.042242,-0.228235,0.816642,0.014162,-0.388746,0.895614,-0.011569,-0.546757,0.937631,-0.018096,-0.312882,0.927886,-0.031666,0,0,0,0,0,0,0,0,0,0,1,0,0,0,0
926,'2025/06/17 09:39:26:454',10,0.462988,0.021023,0.004786,0.005887,-0.00869,0.050324,0.360987,0.042242,-0.228235,0.816642,0.014162,-0.388746,0.895614,-0.011569,-0.546757,0.937631,-0.018096,-0.312882,0.927886,-0.031666,0,0,0,0,0,0,0,0,0,0,1,0,0,0,0
927,'2025/06/17 09:39:26:461',10,0.462988,0.021023,0.004786,0.005887,-0.00869,0.050324,0.360987,0.042242,-0.228235,0.816642,0.014162,-0.388746,0.895614,-0.011569,-0.546757,0.937631,-0.018096,-0.312882,0.927886,-0.031666,0,0,0,0,0,0,0,0,0,0,1,0,0,0,0
928,'2025/06/17 09:39:26:467',10,0.462988,0.021023,0.004786,0.005887,-0.00869,0.050324,0.360987,0.042242,-0.228235,0.816642,0.014162,-0.388746,0.895614,-0.011569,-0.546757,0.937631,-0.018096,-0.312882,0.927886,-0.031666,0,0,0,0,0,0,0,0,0,0,1,0,0,0,0
929,'2025/06/17 09:39:26:473',10,0.462988,0.021023,0.004786,0.005887,-0.00869,0.050324,0.360987,0.042242,-0.228235,0.816642,0.014162,-0.388746,0.895614,-0.011569,-0.546757,0.937631,-0.018096,-0.312882,0.927886,-0.031666,0,0,0,0,0,0,0,0,0,0,1,0,0,0,0
930,'2025/06/17 09:39:26:481',10,0.462988,0.021023,0.004786,0.005887,-0.00869,0.050324,0.360987,0.042242,-0.228235,0.816642,0.014162,-0.388746,0.895614,-0.011569,-0.546757,0.937631,-0.018096,-0.312882,0.927886,-0.031666,0,0,0,0,0,0,0,0,0,0,1,0,0,0,0
931,'2025/06/17 09:39:26:487',10,0.462988,0.021023,0.004786,0.005887,-0.00869,0.050324,0.360987,0.042242,-0.228235,0.816642,0.014162,-0.388746,0.895614,-0.011569,-0.546757,0.937631,-0.018096,-0.312882,0.927886,-0.031666,0,0,0,0,0,0,0,0,0,0,1,0,0,0,0
932,'2025/06/17 09:39:26:494',10,0.462988,0.021023,0.004786,0.005887,-0.00869,0.050324,0.360987,0.042242,-0.228235,0.816642,0.014162,-0.388746,0.895614,-0.011569,-0.546757,0.937631,-0.018096,-0.312882,0.927886,-0.031666,0,0,0,0,0,0,0,0,0,0,1,0,0,0,0
933,'2025/06/17 09:39:26:501',10,0.462988,0.021023,0.004786,0.005887,-0.00869,0.050324,0.360987,0.042242,-0.228235,0.816642,0.014162,-0.388746,0.895614,-0.011569,-0.546757,0.937631,-0.018096,-0.312882,0.927886,-0.031666,0,0,0,0,0,0,0,0,0,0,1,0,0,0,0
934,'2025/06/17 09:39:26:507',10,0.462988,0.021023,0.004786,0.005887,-0.00869,0.050324,0.360987,0.042242,-0.228235,0.816642,0.014162,-0.388746,0.895614,-0.011569,-0.546757,0.937631,-0.018096,-0.312882,0.927886,-0.031666,0,0,0,0,0,0,0,0,0,0,1,0,0,0,0
935,'2025/06/17 09:39:26:514',10,0.462988,0.021023,0.004786,0.005887,-0.00869,0.050324,0.360987,0.042242,-0.228235,0.816642,0.014162,-0.388746,0.895614,-0.011569,-0.546757,0.937631,-0.018096,-0.312882,0.927886,-0.031666,0,0,0,0,0,0,0,0,0,0,1,0,0,0,0
936,'2025/06/17 09:39:26:522',10,0.462988,0.021023,0.004786,0.005887,-0.00869,0.050324,0.360987,0.042242,-0.228235,0.816642,0.014162,-0.388746,0.895614,-0.011569,-0.546757,0.937631,-0.018096,-0.312882,0.927886,-0.031666,0,0,0,0,0,0,0,0,0,0,1,0,0,0,0
937,'2025/06/17 09:39:26:528',10,0.462988,0.021023,0.004786,0.005887,-0.00869,0.050324,0.360987,0.042242,-0.228235,0.816642,0.014162,-0.388746,0.895614,-0.011569,-0.546757,0.937631,-0.018096,-0.312882,0.927886,-0.031666,0,0,0,0,0,0,0,0,0,0,1,0,0,0,0
938,'2025/06/17 09:39:26:535',10,0.462988,0.021023,0.004786,0.005887,-0.00869,0.050324,0.360987,0.042242,-0.228235,0.816642,0.014162,-0.388746,0.895614,-0.011569,-0.546757,0.937631,-0.018096,-0.312882,0.927886,-0.031666,0,0,0,0,0,0,0,0,0,0,1,0,0,0,0
939,'2025/06/17 09:39:26:543',10,0.462988,0.021023,0.004786,0.005887,-0.00869,0.050324,0.360987,0.042242,-0.228235,0.816642,0.014162,-0.388746,0.895614,-0.011569,-0.546757,0.937631,-0.018096,-0.312882,0.927886,-0.031666,0,0,0,0,0,0,0,0,0,0,1,0,0,0,0
940,'2025/06/17 09:39:26:549',10,0.462988,0.021023,0.004786,0.005887,-0.00869,0.050324,0.360987,0.042242,-0.228235,0.816642,0.014162,-0.388746,0.895614,-0.011569,-0.546757,0.937631,-0.018096,-0.312882,0.927886,-0.031666,0,0,0,0,0,0,0,0,0,0,1,0,0,0,0
941,'2025/06/17 09:39:26:555',10,0.462988,0.021023,0.004786,0.005887,-0.00869,0.050324,0.360987,0.042242,-0.228235,0.816642,0.014162,-0.388746,0.895614,-0.011569,-0.546757,0.937631,-0.018096,-0.312882,0.927886,-0.031666,0,0,0,0,0,0,0,0,0,0,1,0,0,0,0
942,'2025/06/17 09:39:26:562',10,0.462988,0.021023,0.004786,0.005887,-0.00869,0.050324,0.360987,0.042242,-0.228235,0.816642,0.014162,-0.388746,0.895614,-0.011569,-0.546757,0.937631,-0.018096,-0.312882,0.927886,-0.031666,0,0,0,0,0,0,0,0,0,0,1,0,0,0,0
943,'2025/06/17 09:39:26:568',10,0.462988,0.021023,0.004786,0.005887,-0.00869,0.050324,0.360987,0.042242,-0.228235,0.816642,0.014162,-0.388746,0.895614,-0.011569,-0.546757,0.937631,-0.018096,-0.312882,0.927886,-0.031666,0,0,0,0,0,0,0,0,0,0,1,0,0,0,0
944,'2025/06/17 09:39:26:575',10,0.462988,0.021023,0.004786,0.005887,-0.00869,0.050324,0.360987,0.042242,-0.228235,0.816642,0.014162,-0.388746,0.895614,-0.011569,-0.546757,0.937631,-0.018096,-0.312882,0.927886,-0.031666,0,0,0,0,0,0,0,0,0,0,1,0,0,0,0
945,'2025/06/17 09:39:26:582',10,0.462988,0.021023,0.004786,0.005887,-0.00869,0.050324,0.360987,0.042242,-0.228235,0.816642,0.014162,-0.388746,0.895614,-0.011569,-0.546757,0.937631,-0.018096,-0.312882,0.927886,-0.031666,0,0,0,0,0,0,0,0,0,0,1,0,0,0,0
946,'2025/06/17 09:39:26:587',10,0.462988,0.021023,0.004786,0.005887,-0.00869,0.050324,0.360987,0.042242,-0.228235,0.816642,0.014162,-0.388746,0.895614,-0.011569,-0.546757,0.937631,-0.018096,-0.312882,0.927886,-0.031666,0,0,0,0,0,0,0,0,0,0,1,0,0,0,0
947,'2025/06/17 09:39:26:595',10,0.462988,0.021023,0.004786,0.005887,-0.00869,0.050324,0.360987,0.042242,-0.228235,0.816642,0.014162,-0.388746,0.895614,-0.011569,-0.546757,0.937631,-0.018096,-0.312882,0.927886,-0.031666,0,0,0,0,0,0,0,0,0,0,1,0,0,0,0
948,'2025/06/17 09:39:26:602',10,0.462988,0.021023,0.004786,0.005887,-0.00869,0.050324,0.360987,0.042242,-0.228235,0.816642,0.014162,-0.388746,0.895614,-0.011569,-0.546757,0.937631,-0.018096,-0.312882,0.927886,-0.031666,0,0,0,0,0,0,0,0,0,0,1,0,0,0,0
949,'2025/06/17 09:39:26:609',10,0.462988,0.021023,0.004786,0.005887,-0.00869,0.050324,0.360987,0.042242,-0.228235,0.816642,0.014162,-0.388746,0.895614,-0.011569,-0.546757,0.937631,-0.018096,-0.312882,0.927886,-0.031666,0,0,0,0,0,0,0,0,0,0,1,0,0,0,0
950,'2025/06/17 09:39:26:616',10,0.462988,0.021023,0.004786,0.005887,-0.00869,0.050324,0.360987,0.042242,-0.228235,0.816642,0.014162,-0.388746,0.895614,-0.011569,-0.546757,0.937631,-0.018096,-0.312882,0.927886,-0.031666,0,0,0,0,0,0,0,0,0,0,1,0,0,0,0
951,'2025/06/17 09:39:26:621',10,0.462988,0.021023,0.004786,0.005887,-0.00869,0.050324,0.360987,0.042242,-0.228235,0.816642,0.014162,-0.388746,0.895614,-0.011569,-0.546757,0.937631,-0.018096,-0.312882,0.927886,-0.031666,0,0,0,0,0,0,0,0,0,0,1,0,0,0,0
952,'2025/06/17 09:39:26:629',10,0.462988,0.021023,0.004786,0.005887,-0.00869,0.050324,0.360987,0.042242,-0.228235,0.816642,0.014162,-0.388746,0.895614,-0.011569,-0.546757,0.937631,-0.018096,-0.312882,0.927886,-0.031666,0,0,0,0,0,0,0,0,0,0,1,0,0,0,0
953,'2025/06/17 09:39:26:635',10,0.462988,0.021023,0.004786,0.005887,-0.00869,0.050324,0.360987,0.042242,-0.228235,0.816642,0.014162,-0.388746,0.895614,-0.011569,-0.546757,0.937631,-0.018096,-0.312882,0.927886,-0.031666,0,0,0,0,0,0,0,0,0,0,1,0,0,0,0
954,'2025/06/17 09:39:26:641',10,0.462988,0.021023,0.004786,0.005887,-0.00869,0.050324,0.360987,0.042242,-0.228235,0.816642,0.014162,-0.388746,0.895614,-0.011569,-0.546757,0.937631,-0.018096,-0.312882,0.927886,-0.031666,0,0,0,0,0,0,0,0,0,0,1,0,0,0,0
955,'2025/06/17 09:39:26:648',10,0.462988,0.021023,0.004786,0.005887,-0.00869,0.050324,0.360987,0.042242,-0.228235,0.816642,0.014162,-0.388746,0.895614,-0.011569,-0.546757,0.937631,-0.018096,-0.312882,0.927886,-0.031666,0,0,0,0,0,0,0,0,0,0,1,0,0,0,0
956,'2025/06/17 09:39:26:653',10,0.462988,0.021023,0.004786,0.005887,-0.00869,0.050324,0.360987,0.042242,-0.228235,0.816642,0.014162,-0.388746,0.895614,-0.011569,-0.546757,0.937631,-0.018096,-0.312882,0.927886,-0.031666,0,0,0,0,0,0,0,0,0,0,1,0,0,0,0
957,'2025/06/17 09:39:26:661',10,0.462988,0.021023,0.004786,0.005887,-0.00869,0.050324,0.360987,0.042242,-0.228235,0.816642,0.014162,-0.388746,0.895614,-0.011569,-0.546757,0.937631,-0.018096,-0.312882,0.927886,-0.031666,0,0,0,0,0,0,0,0,0,0,1,0,0,0,0
958,'2025/06/17 09:39:26:668',10,0.462988,0.021023,0.004786,0.005887,-0.00869,0.050324,0.360987,0.042242,-0.228235,0.816642,0.014162,-0.388746,0.895614,-0.011569,-0.546757,0.937631,-0.018096,-0.312882,0.927886,-0.031666,0,0,0,0,0,0,0,0,0,0,1,0,0,0,0
959,'2025/06/17 09:39:26:675',10,0.462988,0.021023,0.004786,0.005887,-0.00869,0.050324,0.360987,0.042242,-0.228235,0.816642,0.014162,-0.388746,0.895614,-0.011569,-0.546757,0.937631,-0.018096,-0.312882,0.927886,-0.031666,0,0,0,0,0,0,0,0,0,0,1,0,0,0,0
960,'2025/06/17 09:39:26:684',10,0.462988,0.021023,0.004786,0.005887,-0.00869,0.050324,0.360987,0.042242,-0.228235,0.816642,0.014162,-0.388746,0.895614,-0.011569,-0.546757,0.937631,-0.018096,-0.312882,0.927886,-0.031666,0,0,0,0,0,0,0,0,0,0,1,0,0,0,0
961,'2025/06/17 09:39:26:692',10,0.462988,0.021023,0.004786,0.005887,-0.00869,0.050324,0.360987,0.042242,-0.228235,0.816642,0.014162,-0.388746,0.895614,-0.011569,-0.546757,0.937631,-0.018096,-0.312882,0.927886,-0.031666,0,0,0,0,0,0,0,0,0,0,1,0,0,0,0
962,'2025/06/17 09:39:26:699',10,0.462988,0.021023,0.004786,0.005887,-0.00869,0.050324,0.360987,0.042242,-0.228235,0.816642,0.014162,-0.388746,0.895614,-0.011569,-0.546757,0.937631,-0.018096,-0.312882,0.927886,-0.031666,0,0,0,0,0,0,0,0,0,0,1,0,0,0,0
963,'2025/06/17 09:39:26:705',10,0.462988,0.021023,0.004786,0.005887,-0.00869,0.050324,0.360987,0.042242,-0.228235,0.816642,0.014162,-0.388746,0.895614,-0.011569,-0.546757,0.937631,-0.018096,-0.312882,0.927886,-0.031666,0,0,0,0,0,0,0,0,0,0,1,0,0,0,0
964,'2025/06/17 09:39:26:712',10,0.462988,0.021023,0.004786,0.005887,-0.00869,0.050324,0.360987,0.042242,-0.228235,0.816642,0.014162,-0.388746,0.895614,-0.011569,-0.546757,0.937631,-0.018096,-0.312882,0.927886,-0.031666,0,0,0,0,0,0,0,0,0,0,1,0,0,0,0
965,'2025/06/17 09:39:26:719',10,0.462988,0.021023,0.004786,0.005887,-0.00869,0.050324,0.360987,0.042242,-0.228235,0.816642,0.014162,-0.388746,0.895614,-0.011569,-0.546757,0.937631,-0.018096,-0.312882,0.927886,-0.031666,0,0,0,0,0,0,0,0,0,0,1,0,0,0,0
966,'2025/06/17 09:39:26:725',10,0.462988,0.021023,0.004786,0.005887,-0.00869,0.050324,0.360987,0.042242,-0.228235,0.816642,0.014162,-0.388746,0.895614,-0.011569,-0.546757,0.937631,-0.018096,-0.312882,0.927886,-0.031666,0,0,0,0,0,0,0,0,0,0,1,0,0,0,0
967,'2025/06/17 09:39:26:731',10,0.462988,0.021023,0.004786,0.005887,-0.00869,0.050324,0.360987,0.042242,-0.228235,0.816642,0.014162,-0.388746,0.895614,-0.011569,-0.546757,0.937631,-0.018096,-0.312882,0.927886,-0.031666,0,0,0,0,0,0,0,0,0,0,1,0,0,0,0
968,'2025/06/17 09:39:26:737',10,0.462988,0.021023,0.004786,0.005887,-0.00869,0.050324,0.360987,0.042242,-0.228235,0.816642,0.014162,-0.388746,0.895614,-0.011569,-0.546757,0.937631,-0.018096,-0.312882,0.927886,-0.031666,0,0,0,0,0,0,0,0,0,0,1,0,0,0,0
969,'2025/06/17 09:39:26:744',10,0.462988,0.021023,0.004786,0.005887,-0.00869,0.050324,0.360987,0.042242,-0.228235,0.816642,0.014162,-0.388746,0.895614,-0.011569,-0.546757,0.937631,-0.018096,-0.312882,0.927886,-0.031666,0,0,0,0,0,0,0,0,0,0,1,0,0,0,0
970,'2025/06/17 09:39:26:751',10,0.462988,0.021023,0.004786,0.005887,-0.00869,0.050324,0.360987,0.042242,-0.228235,0.816642,0.014162,-0.388746,0.895614,-0.011569,-0.546757,0.937631,-0.018096,-0.312882,0.927886,-0.031666,0,0,0,0,0,0,0,0,0,0,1,0,0,0,0
971,'2025/06/17 09:39:26:759',10,0.462988,0.021023,0.004786,0.005887,-0.00869,0.050324,0.360987,0.042242,-0.228235,0.816642,0.014162,-0.388746,0.895614,-0.011569,-0.546757,0.937631,-0.018096,-0.312882,0.927886,-0.031666,0,0,0,0,0,0,0,0,0,0,1,0,0,0,0
972,'2025/06/17 09:39:26:766',10,0.462988,0.021023,0.004786,0.005887,-0.00869,0.050324,0.360987,0.042242,-0.228235,0.816642,0.014162,-0.388746,0.895614,-0.011569,-0.546757,0.937631,-0.018096,-0.312882,0.927886,-0.031666,0,0,0,0,0,0,0,0,0,0,1,0,0,0,0
973,'2025/06/17 09:39:26:771',10,0.462988,0.021023,0.004786,0.005887,-0.00869,0.050324,0.360987,0.042242,-0.228235,0.816642,0.014162,-0.388746,0.895614,-0.011569,-0.546757,0.937631,-0.018096,-0.312882,0.927886,-0.031666,0,0,0,0,0,0,0,0,0,0,1,0,0,0,0
974,'2025/06/17 09:39:26:777',10,0.462988,0.021023,0.004786,0.005887,-0.00869,0.050324,0.360987,0.042242,-0.228235,0.816642,0.014162,-0.388746,0.895614,-0.011569,-0.546757,0.937631,-0.018096,-0.312882,0.927886,-0.031666,0,0,0,0,0,0,0,0,0,0,1,0,0,0,0
975,'2025/06/17 09:39:26:785',10,0.462988,0.021023,0.004786,0.005887,-0.00869,0.050324,0.360987,0.042242,-0.228235,0.816642,0.014162,-0.388746,0.895614,-0.011569,-0.546757,0.937631,-0.018096,-0.312882,0.927886,-0.031666,0,0,0,0,0,0,0,0,0,0,1,0,0,0,0
976,'2025/06/17 09:39:26:793',10,0.462988,0.021023,0.004786,0.005887,-0.00869,0.050324,0.360987,0.042242,-0.228235,0.816642,0.014162,-0.388746,0.895614,-0.011569,-0.546757,0.937631,-0.018096,-0.312882,0.927886,-0.031666,0,0,0,0,0,0,0,0,0,0,1,0,0,0,0
977,'2025/06/17 09:39:26:802',10,0.462988,0.021023,0.004786,0.005887,-0.00869,0.050324,0.360987,0.042242,-0.228235,0.816642,0.014162,-0.388746,0.895614,-0.011569,-0.546757,0.937631,-0.018096,-0.312882,0.927886,-0.031666,0,0,0,0,0,0,0,0,0,0,1,0,0,0,0
978,'2025/06/17 09:39:26:808',10,0.462988,0.021023,0.004786,0.005887,-0.00869,0.050324,0.360987,0.042242,-0.228235,0.816642,0.014162,-0.388746,0.895614,-0.011569,-0.546757,0.937631,-0.018096,-0.312882,0.927886,-0.031666,0,0,0,0,0,0,0,0,0,0,1,0,0,0,0
979,'2025/06/17 09:39:26:815',10,0.462988,0.021023,0.004786,0.005887,-0.00869,0.050324,0.360987,0.042242,-0.228235,0.816642,0.014162,-0.388746,0.895614,-0.011569,-0.546757,0.937631,-0.018096,-0.312882,0.927886,-0.031666,0,0,0,0,0,0,0,0,0,0,1,0,0,0,0
980,'2025/06/17 09:39:26:821',10,0.462988,0.021023,0.004786,0.005887,-0.00869,0.050324,0.360987,0.042242,-0.228235,0.816642,0.014162,-0.388746,0.895614,-0.011569,-0.546757,0.937631,-0.018096,-0.312882,0.927886,-0.031666,0,0,0,0,0,0,0,0,0,0,1,0,0,0,0
981,'2025/06/17 09:39:26:827',10,0.462988,0.021023,0.004786,0.005887,-0.00869,0.050324,0.360987,0.042242,-0.228235,0.816642,0.014162,-0.388746,0.895614,-0.011569,-0.546757,0.937631,-0.018096,-0.312882,0.927886,-0.031666,0,0,0,0,0,0,0,0,0,0,1,0,0,0,0
982,'2025/06/17 09:39:26:833',10,0.462988,0.021023,0.004786,0.005887,-0.00869,0.050324,0.360987,0.042242,-0.228235,0.816642,0.014162,-0.388746,0.895614,-0.011569,-0.546757,0.937631,-0.018096,-0.312882,0.927886,-0.031666,0,0,0,0,0,0,0,0,0,0,1,0,0,0,0
983,'2025/06/17 09:39:26:841',10,0.462988,0.021023,0.004786,0.005887,-0.00869,0.050324,0.360987,0.042242,-0.228235,0.816642,0.014162,-0.388746,0.895614,-0.011569,-0.546757,0.937631,-0.018096,-0.312882,0.927886,-0.031666,0,0,0,0,0,0,0,0,0,0,1,0,0,0,0
984,'2025/06/17 09:39:26:848',10,0.462988,0.021023,0.004786,0.005887,-0.00869,0.050324,0.360987,0.042242,-0.228235,0.816642,0.014162,-0.388746,0.895614,-0.011569,-0.546757,0.937631,-0.018096,-0.312882,0.927886,-0.031666,0,0,0,0,0,0,0,0,0,0,1,0,0,0,0
985,'2025/06/17 09:39:26:853',10,0.462988,0.021023,0.004786,0.005887,-0.00869,0.050324,0.360987,0.042242,-0.228235,0.816642,0.014162,-0.388746,0.895614,-0.011569,-0.546757,0.937631,-0.018096,-0.312882,0.927886,-0.031666,0,0,0,0,0,0,0,0,0,0,1,0,0,0,0
986,'2025/06/17 09:39:26:861',10,0.462988,0.021023,0.004786,0.005887,-0.00869,0.050324,0.360987,0.042242,-0.228235,0.816642,0.014162,-0.388746,0.895614,-0.011569,-0.546757,0.937631,-0.018096,-0.312882,0.927886,-0.031666,0,0,0,0,0,0,0,0,0,0,1,0,0,0,0
987,'2025/06/17 09:39:26:866',10,0.462988,0.021023,0.004786,0.005887,-0.00869,0.050324,0.360987,0.042242,-0.228235,0.816642,0.014162,-0.388746,0.895614,-0.011569,-0.546757,0.937631,-0.018096,-0.312882,0.927886,-0.031666,0,0,0,0,0,0,0,0,0,0,1,0,0,0,0
988,'2025/06/17 09:39:26:873',10,0.462988,0.021023,0.004786,0.005887,-0.00869,0.050324,0.360987,0.042242,-0.228235,0.816642,0.014162,-0.388746,0.895614,-0.011569,-0.546757,0.937631,-0.018096,-0.312882,0.927886,-0.031666,0,0,0,0,0,0,0,0,0,0,1,0,0,0,0
989,'2025/06/17 09:39:26:881',10,0.462988,0.021023,0.004786,0.005887,-0.00869,0.050324,0.360987,0.042242,-0.228235,0.816642,0.014162,-0.388746,0.895614,-0.011569,-0.546757,0.937631,-0.018096,-0.312882,0.927886,-0.031666,0,0,0,0,0,0,0,0,0,0,1,0,0,0,0
990,'2025/06/17 09:39:26:886',10,0.462988,0.021023,0.004786,0.005887,-0.00869,0.050324,0.360987,0.042242,-0.228235,0.816642,0.014162,-0.388746,0.895614,-0.011569,-0.546757,0.937631,-0.018096,-0.312882,0.927886,-0.031666,0,0,0,0,0,0,0,0,0,0,1,0,0,0,0
991,'2025/06/17 09:39:26:894',10,0.462988,0.021023,0.004786,0.005887,-0.00869,0.050324,0.360987,0.042242,-0.228235,0.816642,0.014162,-0.388746,0.895614,-0.011569,-0.546757,0.937631,-0.018096,-0.312882,0.927886,-0.031666,0,0,0,0,0,0,0,0,0,0,1,0,0,0,0
992,'2025/06/17 09:39:26:901',10,0.462988,0.021023,0.004786,0.005887,-0.00869,0.050324,0.360987,0.042242,-0.228235,0.816642,0.014162,-0.388746,0.895614,-0.011569,-0.546757,0.937631,-0.018096,-0.312882,0.927886,-0.031666,0,0,0,0,0,0,0,0,0,0,1,0,0,0,0
993,'2025/06/17 09:39:26:907',10,0.462988,0.021023,0.004786,0.005887,-0.00869,0.050324,0.360987,0.042242,-0.228235,0.816642,0.014162,-0.388746,0.895614,-0.011569,-0.546757,0.937631,-0.018096,-0.312882,0.927886,-0.031666,0,0,0,0,0,0,0,0,0,0,1,0,0,0,0
994,'2025/06/17 09:39:26:915',10,0.462988,0.021023,0.004786,0.005887,-0.00869,0.050324,0.360987,0.042242,-0.228235,0.816642,0.014162,-0.388746,0.895614,-0.011569,-0.546757,0.937631,-0.018096,-0.312882,0.927886,-0.031666,0,0,0,0,0,0,0,0,0,0,1,0,0,0,0
995,'2025/06/17 09:39:26:919',10,0.462988,0.021023,0.004786,0.005887,-0.00869,0.050324,0.360987,0.042242,-0.228235,0.816642,0.014162,-0.388746,0.895614,-0.011569,-0.546757,0.937631,-0.018096,-0.312882,0.927886,-0.031666,0,0,0,0,0,0,0,0,0,0,1,0,0,0,0
996,'2025/06/17 09:39:26:927',10,0.462988,0.021023,0.004786,0.005887,-0.00869,0.050324,0.360987,0.042242,-0.228235,0.816642,0.014162,-0.388746,0.895614,-0.011569,-0.546757,0.937631,-0.018096,-0.312882,0.927886,-0.031666,0,0,0,0,0,0,0,0,0,0,1,0,0,0,0
997,'2025/06/17 09:39:26:933',10,0.462988,0.021023,0.004786,0.005887,-0.00869,0.050324,0.360987,0.042242,-0.228235,0.816642,0.014162,-0.388746,0.895614,-0.011569,-0.546757,0.937631,-0.018096,-0.312882,0.927886,-0.031666,0,0,0,0,0,0,0,0,0,0,1,0,0,0,0
998,'2025/06/17 09:39:26:939',10,0.462988,0.021023,0.004786,0.005887,-0.00869,0.050324,0.360987,0.042242,-0.228235,0.816642,0.014162,-0.388746,0.895614,-0.011569,-0.546757,0.937631,-0.018096,-0.312882,0.927886,-0.031666,0,0,0,0,0,0,0,0,0,0,1,0,0,0,0
999,'2025/06/17 09:39:26:946',10,0.462988,0.021023,0.004786,0.005887,-0.00869,0.050324,0.360987,0.042242,-0.228235,0.816642,0.014162,-0.388746,0.895614,-0.011569,-0.546757,0.937631,-0.018096,-0.312882,0.927886,-0.031666,0,0,0,0,0,0,0,0,0,0,1,0,0,0,0
1000,'2025/06/17 09:39:26:953',10,0.462988,0.021023,0.004786,0.005887,-0.00869,0.050324,0.360987,0.042242,-0.228235,0.816642,0.014162,-0.388746,0.895614,-0.011569,-0.546757,0.937631,-0.018096,-0.312882,0.927886,-0.031666,0,0,0,0,0,0,0,0,0,0,1,0,0,0,0
1001,'2025/06/17 09:39:26:961',10,0.462988,0.021023,0.004786,0.005887,-0.00869,0.050324,0.360987,0.042242,-0.228235,0.816642,0.014162,-0.388746,0.895614,-0.011569,-0.546757,0.937631,-0.018096,-0.312882,0.927886,-0.031666,0,0,0,0,0,0,0,0,0,0,1,0,0,0,0
1002,'2025/06/17 09:39:26:966',10,0.462988,0.021023,0.004786,0.005887,-0.00869,0.050324,0.360987,0.042242,-0.228235,0.816642,0.014162,-0.388746,0.895614,-0.011569,-0.546757,0.937631,-0.018096,-0.312882,0.927886,-0.031666,0,0,0,0,0,0,0,0,0,0,1,0,0,0,0
1003,'2025/06/17 09:39:26:973',10,0.462988,0.021023,0.004786,0.005887,-0.00869,0.050324,0.360987,0.042242,-0.228235,0.816642,0.014162,-0.388746,0.895614,-0.011569,-0.546757,0.937631,-0.018096,-0.312882,0.927886,-0.031666,0,0,0,0,0,0,0,0,0,0,1,0,0,0,0
1004,'2025/06/17 09:39:26:980',10,0.462988,0.021023,0.004786,0.005887,-0.00869,0.050324,0.360987,0.042242,-0.228235,0.816642,0.014162,-0.388746,0.895614,-0.011569,-0.546757,0.937631,-0.018096,-0.312882,0.927886,-0.031666,0,0,0,0,0,0,0,0,0,0,1,0,0,0,0
1005,'2025/06/17 09:39:26:986',10,0.462988,0.021023,0.004786,0.005887,-0.00869,0.050324,0.360987,0.042242,-0.228235,0.816642,0.014162,-0.388746,0.895614,-0.011569,-0.546757,0.937631,-0.018096,-0.312882,0.927886,-0.031666,0,0,0,0,0,0,0,0,0,0,1,0,0,0,0
1006,'2025/06/17 09:39:26:993',10,0.462988,0.021023,0.004786,0.005887,-0.00869,0.050324,0.360987,0.042242,-0.228235,0.816642,0.014162,-0.388746,0.895614,-0.011569,-0.546757,0.937631,-0.018096,-0.312882,0.927886,-0.031666,0,0,0,0,0,0,0,0,0,0,1,0,0,0,0
1007,'2025/06/17 09:39:27:000',10,0.462988,0.021023,0.004786,0.005887,-0.00869,0.050324,0.360987,0.042242,-0.228235,0.816642,0.014162,-0.388746,0.895614,-0.011569,-0.546757,0.937631,-0.018096,-0.312882,0.927886,-0.031666,0,0,0,0,0,0,0,0,0,0,1,0,0,0,0
1008,'2025/06/17 09:39:27:007',10,0.462988,0.021023,0.004786,0.005887,-0.00869,0.050324,0.360987,0.042242,-0.228235,0.816642,0.014162,-0.388746,0.895614,-0.011569,-0.546757,0.937631,-0.018096,-0.312882,0.927886,-0.031666,0,0,0,0,0,0,0,0,0,0,1,0,0,0,0
1009,'2025/06/17 09:39:27:013',10,0.462988,0.021023,0.004786,0.005887,-0.00869,0.050324,0.360987,0.042242,-0.228235,0.816642,0.014162,-0.388746,0.895614,-0.011569,-0.546757,0.937631,-0.018096,-0.312882,0.927886,-0.031666,0,0,0,0,0,0,0,0,0,0,1,0,0,0,0
1010,'2025/06/17 09:39:27:020',10,0.462988,0.021023,0.004786,0.005887,-0.00869,0.050324,0.360987,0.042242,-0.228235,0.816642,0.014162,-0.388746,0.895614,-0.011569,-0.546757,0.937631,-0.018096,-0.312882,0.927886,-0.031666,0,0,0,0,0,0,0,0,0,0,1,0,0,0,0
1011,'2025/06/17 09:39:27:026',10,0.462988,0.021023,0.004786,0.005887,-0.00869,0.050324,0.360987,0.042242,-0.228235,0.816642,0.014162,-0.388746,0.895614,-0.011569,-0.546757,0.937631,-0.018096,-0.312882,0.927886,-0.031666,0,0,0,0,0,0,0,0,0,0,1,0,0,0,0
1012,'2025/06/17 09:39:27:032',10,0.462988,0.021023,0.004786,0.005887,-0.00869,0.050324,0.360987,0.042242,-0.228235,0.816642,0.014162,-0.388746,0.895614,-0.011569,-0.546757,0.937631,-0.018096,-0.312882,0.927886,-0.031666,0,0,0,0,0,0,0,0,0,0,1,0,0,0,0
1013,'2025/06/17 09:39:27:039',10,0.462988,0.021023,0.004786,0.005887,-0.00869,0.050324,0.360987,0.042242,-0.228235,0.816642,0.014162,-0.388746,0.895614,-0.011569,-0.546757,0.937631,-0.018096,-0.312882,0.927886,-0.031666,0,0,0,0,0,0,0,0,0,0,1,0,0,0,0
1014,'2025/06/17 09:39:27:045',10,0.462988,0.021023,0.004786,0.005887,-0.00869,0.050324,0.360987,0.042242,-0.228235,0.816642,0.014162,-0.388746,0.895614,-0.011569,-0.546757,0.937631,-0.018096,-0.312882,0.927886,-0.031666,0,0,0,0,0,0,0,0,0,0,1,0,0,0,0
1015,'2025/06/17 09:39:27:052',10,0.462988,0.021023,0.004786,0.005887,-0.00869,0.050324,0.360987,0.042242,-0.228235,0.816642,0.014162,-0.388746,0.895614,-0.011569,-0.546757,0.937631,-0.018096,-0.312882,0.927886,-0.031666,0,0,0,0,0,0,0,0,0,0,1,0,0,0,0
1016,'2025/06/17 09:39:27:057',10,0.462988,0.021023,0.004786,0.005887,-0.00869,0.050324,0.360987,0.042242,-0.228235,0.816642,0.014162,-0.388746,0.895614,-0.011569,-0.546757,0.937631,-0.018096,-0.312882,0.927886,-0.031666,0,0,0,0,0,0,0,0,0,0,1,0,0,0,0
1017,'2025/06/17 09:39:27:065',10,0.462988,0.021023,0.004786,0.005887,-0.00869,0.050324,0.360987,0.042242,-0.228235,0.816642,0.014162,-0.388746,0.895614,-0.011569,-0.546757,0.937631,-0.018096,-0.312882,0.927886,-0.031666,0,0,0,0,0,0,0,0,0,0,1,0,0,0,0
1018,'2025/06/17 09:39:27:071',10,0.462988,0.021023,0.004786,0.005887,-0.00869,0.050324,0.360987,0.042242,-0.228235,0.816642,0.014162,-0.388746,0.895614,-0.011569,-0.546757,0.937631,-0.018096,-0.312882,0.927886,-0.031666,0,0,0,0,0,0,0,0,0,0,1,0,0,0,0
1019,'2025/06/17 09:39:27:076',10,0.462988,0.021023,0.004786,0.005887,-0.00869,0.050324,0.360987,0.042242,-0.228235,0.816642,0.014162,-0.388746,0.895614,-0.011569,-0.546757,0.937631,-0.018096,-0.312882,0.927886,-0.031666,0,0,0,0,0,0,0,0,0,0,1,0,0,0,0
1020,'2025/06/17 09:39:27:084',10,0.462988,0.021023,0.004786,0.005887,-0.00869,0.050324,0.360987,0.042242,-0.228235,0.816642,0.014162,-0.388746,0.895614,-0.011569,-0.546757,0.937631,-0.018096,-0.312882,0.927886,-0.031666,0,0,0,0,0,0,0,0,0,0,1,0,0,0,0
1021,'2025/06/17 09:39:27:091',10,0.462988,0.021023,0.004786,0.005887,-0.00869,0.050324,0.360987,0.042242,-0.228235,0.816642,0.014162,-0.388746,0.895614,-0.011569,-0.546757,0.937631,-0.018096,-0.312882,0.927886,-0.031666,0,0,0,0,0,0,0,0,0,0,1,0,0,0,0
1022,'2025/06/17 09:39:27:098',10,0.462988,0.021023,0.004786,0.005887,-0.00869,0.050324,0.360987,0.042242,-0.228235,0.816642,0.014162,-0.388746,0.895614,-0.011569,-0.546757,0.937631,-0.018096,-0.312882,0.927886,-0.031666,0,0,0,0,0,0,0,0,0,0,1,0,0,0,0
1023,'2025/06/17 09:39:27:104',10,0.462988,0.021023,0.004786,0.005887,-0.00869,0.050324,0.360987,0.042242,-0.228235,0.816642,0.014162,-0.388746,0.895614,-0.011569,-0.546757,0.937631,-0.018096,-0.312882,0.927886,-0.031666,0,0,0,0,0,0,0,0,0,0,1,0,0,0,0
1024,'2025/06/17 09:39:27:110',10,0.462988,0.021023,0.004786,0.005887,-0.00869,0.050324,0.360987,0.042242,-0.228235,0.816642,0.014162,-0.388746,0.895614,-0.011569,-0.546757,0.937631,-0.018096,-0.312882,0.927886,-0.031666,0,0,0,0,0,0,0,0,0,0,1,0,0,0,0
1025,'2025/06/17 09:39:27:116',10,0.462988,0.021023,0.004786,0.005887,-0.00869,0.050324,0.360987,0.042242,-0.228235,0.816642,0.014162,-0.388746,0.895614,-0.011569,-0.546757,0.937631,-0.018096,-0.312882,0.927886,-0.031666,0,0,0,0,0,0,0,0,0,0,1,0,0,0,0
1026,'2025/06/17 09:39:27:122',10,0.462988,0.021023,0.004786,0.005887,-0.00869,0.050324,0.360987,0.042242,-0.228235,0.816642,0.014162,-0.388746,0.895614,-0.011569,-0.546757,0.937631,-0.018096,-0.312882,0.927886,-0.031666,0,0,0,0,0,0,0,0,0,0,1,0,0,0,0
1027,'2025/06/17 09:39:27:128',10,0.462988,0.021023,0.004786,0.005887,-0.00869,0.050324,0.360987,0.042242,-0.228235,0.816642,0.014162,-0.388746,0.895614,-0.011569,-0.546757,0.937631,-0.018096,-0.312882,0.927886,-0.031666,0,0,0,0,0,0,0,0,0,0,1,0,0,0,0
1028,'2025/06/17 09:39:27:135',10,0.462988,0.021023,0.004786,0.005887,-0.00869,0.050324,0.360987,0.042242,-0.228235,0.816642,0.014162,-0.388746,0.895614,-0.011569,-0.546757,0.937631,-0.018096,-0.312882,0.927886,-0.031666,0,0,0,0,0,0,0,0,0,0,1,0,0,0,0
1029,'2025/06/17 09:39:27:141',10,0.462988,0.021023,0.004786,0.005887,-0.00869,0.050324,0.360987,0.042242,-0.228235,0.816642,0.014162,-0.388746,0.895614,-0.011569,-0.546757,0.937631,-0.018096,-0.312882,0.927886,-0.031666,0,0,0,0,0,0,0,0,0,0,1,0,0,0,0
1030,'2025/06/17 09:39:27:148',10,0.462988,0.021023,0.004786,0.005887,-0.00869,0.050324,0.360987,0.042242,-0.228235,0.816642,0.014162,-0.388746,0.895614,-0.011569,-0.546757,0.937631,-0.018096,-0.312882,0.927886,-0.031666,0,0,0,0,0,0,0,0,0,0,1,0,0,0,0
1031,'2025/06/17 09:39:27:155',10,0.462988,0.021023,0.004786,0.005887,-0.00869,0.050324,0.360987,0.042242,-0.228235,0.816642,0.014162,-0.388746,0.895614,-0.011569,-0.546757,0.937631,-0.018096,-0.312882,0.927886,-0.031666,0,0,0,0,0,0,0,0,0,0,1,0,0,0,0
1032,'2025/06/17 09:39:27:160',10,0.462988,0.021023,0.004786,0.005887,-0.00869,0.050324,0.360987,0.042242,-0.228235,0.816642,0.014162,-0.388746,0.895614,-0.011569,-0.546757,0.937631,-0.018096,-0.312882,0.927886,-0.031666,0,0,0,0,0,0,0,0,0,0,1,0,0,0,0
1033,'2025/06/17 09:39:27:166',10,0.462988,0.021023,0.004786,0.005887,-0.00869,0.050324,0.360987,0.042242,-0.228235,0.816642,0.014162,-0.388746,0.895614,-0.011569,-0.546757,0.937631,-0.018096,-0.312882,0.927886,-0.031666,0,0,0,0,0,0,0,0,0,0,1,0,0,0,0
1034,'2025/06/17 09:39:27:172',10,0.462988,0.021023,0.004786,0.005887,-0.00869,0.050324,0.360987,0.042242,-0.228235,0.816642,0.014162,-0.388746,0.895614,-0.011569,-0.546757,0.937631,-0.018096,-0.312882,0.927886,-0.031666,0,0,0,0,0,0,0,0,0,0,1,0,0,0,0
1035,'2025/06/17 09:39:27:180',10,0.462988,0.021023,0.004786,0.005887,-0.00869,0.050324,0.360987,0.042242,-0.228235,0.816642,0.014162,-0.388746,0.895614,-0.011569,-0.546757,0.937631,-0.018096,-0.312882,0.927886,-0.031666,0,0,0,0,0,0,0,0,0,0,1,0,0,0,0
1036,'2025/06/17 09:39:27:185',10,0.462988,0.021023,0.004786,0.005887,-0.00869,0.050324,0.360987,0.042242,-0.228235,0.816642,0.014162,-0.388746,0.895614,-0.011569,-0.546757,0.937631,-0.018096,-0.312882,0.927886,-0.031666,0,0,0,0,0,0,0,0,0,0,1,0,0,0,0
1037,'2025/06/17 09:39:27:193',10,0.462988,0.021023,0.004786,0.005887,-0.00869,0.050324,0.360987,0.042242,-0.228235,0.816642,0.014162,-0.388746,0.895614,-0.011569,-0.546757,0.937631,-0.018096,-0.312882,0.927886,-0.031666,0,0,0,0,0,0,0,0,0,0,1,0,0,0,0
1038,'2025/06/17 09:39:27:198',10,0.462988,0.021023,0.004786,0.005887,-0.00869,0.050324,0.360987,0.042242,-0.228235,0.816642,0.014162,-0.388746,0.895614,-0.011569,-0.546757,0.937631,-0.018096,-0.312882,0.927886,-0.031666,0,0,0,0,0,0,0,0,0,0,1,0,0,0,0
1039,'2025/06/17 09:39:27:205',10,0.462988,0.021023,0.004786,0.005887,-0.00869,0.050324,0.360987,0.042242,-0.228235,0.816642,0.014162,-0.388746,0.895614,-0.011569,-0.546757,0.937631,-0.018096,-0.312882,0.927886,-0.031666,0,0,0,0,0,0,0,0,0,0,1,0,0,0,0
1040,'2025/06/17 09:39:27:211',10,0.462988,0.021023,0.004786,0.005887,-0.00869,0.050324,0.360987,0.042242,-0.228235,0.816642,0.014162,-0.388746,0.895614,-0.011569,-0.546757,0.937631,-0.018096,-0.312882,0.927886,-0.031666,0,0,0,0,0,0,0,0,0,0,1,0,0,0,0
1041,'2025/06/17 09:39:27:218',10,0.462988,0.021023,0.004786,0.005887,-0.00869,0.050324,0.360987,0.042242,-0.228235,0.816642,0.014162,-0.388746,0.895614,-0.011569,-0.546757,0.937631,-0.018096,-0.312882,0.927886,-0.031666,0,0,0,0,0,0,0,0,0,0,1,0,0,0,0
1042,'2025/06/17 09:39:27:225',10,0.462988,0.021023,0.004786,0.005887,-0.00869,0.050324,0.360987,0.042242,-0.228235,0.816642,0.014162,-0.388746,0.895614,-0.011569,-0.546757,0.937631,-0.018096,-0.312882,0.927886,-0.031666,0,0,0,0,0,0,0,0,0,0,1,0,0,0,0
1043,'2025/06/17 09:39:27:231',10,0.462988,0.021023,0.004786,0.005887,-0.00869,0.050324,0.360987,0.042242,-0.228235,0.816642,0.014162,-0.388746,0.895614,-0.011569,-0.546757,0.937631,-0.018096,-0.312882,0.927886,-0.031666,0,0,0,0,0,0,0,0,0,0,1,0,0,0,0
1044,'2025/06/17 09:39:27:238',10,0.462988,0.021023,0.004786,0.005887,-0.00869,0.050324,0.360987,0.042242,-0.228235,0.816642,0.014162,-0.388746,0.895614,-0.011569,-0.546757,0.937631,-0.018096,-0.312882,0.927886,-0.031666,0,0,0,0,0,0,0,0,0,0,1,0,0,0,0
1045,'2025/06/17 09:39:27:244',10,0.462988,0.021023,0.004786,0.005887,-0.00869,0.050324,0.360987,0.042242,-0.228235,0.816642,0.014162,-0.388746,0.895614,-0.011569,-0.546757,0.937631,-0.018096,-0.312882,0.927886,-0.031666,0,0,0,0,0,0,0,0,0,0,1,0,0,0,0
1046,'2025/06/17 09:39:27:252',10,0.462988,0.021023,0.004786,0.005887,-0.00869,0.050324,0.360987,0.042242,-0.228235,0.816642,0.014162,-0.388746,0.895614,-0.011569,-0.546757,0.937631,-0.018096,-0.312882,0.927886,-0.031666,0,0,0,0,0,0,0,0,0,0,1,0,0,0,0
1047,'2025/06/17 09:39:27:258',10,0.462988,0.021023,0.004786,0.005887,-0.00869,0.050324,0.360987,0.042242,-0.228235,0.816642,0.014162,-0.388746,0.895614,-0.011569,-0.546757,0.937631,-0.018096,-0.312882,0.927886,-0.031666,0,0,0,0,0,0,0,0,0,0,1,0,0,0,0
1048,'2025/06/17 09:39:27:264',10,0.462988,0.021023,0.004786,0.005887,-0.00869,0.050324,0.360987,0.042242,-0.228235,0.816642,0.014162,-0.388746,0.895614,-0.011569,-0.546757,0.937631,-0.018096,-0.312882,0.927886,-0.031666,0,0,0,0,0,0,0,0,0,0,1,0,0,0,0
1049,'2025/06/17 09:39:27:273',10,0.462988,0.021023,0.004786,0.005887,-0.00869,0.050324,0.360987,0.042242,-0.228235,0.816642,0.014162,-0.388746,0.895614,-0.011569,-0.546757,0.937631,-0.018096,-0.312882,0.927886,-0.031666,0,0,0,0,0,0,0,0,0,0,1,0,0,0,0
1050,'2025/06/17 09:39:27:280',10,0.462988,0.021023,0.004786,0.005887,-0.00869,0.050324,0.360987,0.042242,-0.228235,0.816642,0.014162,-0.388746,0.895614,-0.011569,-0.546757,0.937631,-0.018096,-0.312882,0.927886,-0.031666,0,0,0,0,0,0,0,0,0,0,1,0,0,0,0
1051,'2025/06/17 09:39:27:288',10,0.462988,0.021023,0.004786,0.005887,-0.00869,0.050324,0.360987,0.042242,-0.228235,0.816642,0.014162,-0.388746,0.895614,-0.011569,-0.546757,0.937631,-0.018096,-0.312882,0.927886,-0.031666,0,0,0,0,0,0,0,0,0,0,1,0,0,0,0
1052,'2025/06/17 09:39:27:295',10,0.462988,0.021023,0.004786,0.005887,-0.00869,0.050324,0.360987,0.042242,-0.228235,0.816642,0.014162,-0.388746,0.895614,-0.011569,-0.546757,0.937631,-0.018096,-0.312882,0.927886,-0.031666,0,0,0,0,0,0,0,0,0,0,1,0,0,0,0
1053,'2025/06/17 09:39:27:303',10,0.462988,0.021023,0.004786,0.005887,-0.00869,0.050324,0.360987,0.042242,-0.228235,0.816642,0.014162,-0.388746,0.895614,-0.011569,-0.546757,0.937631,-0.018096,-0.312882,0.927886,-0.031666,0,0,0,0,0,0,0,0,0,0,1,0,0,0,0
1054,'2025/06/17 09:39:27:309',10,0.462988,0.021023,0.004786,0.005887,-0.00869,0.050324,0.360987,0.042242,-0.228235,0.816642,0.014162,-0.388746,0.895614,-0.011569,-0.546757,0.937631,-0.018096,-0.312882,0.927886,-0.031666,0,0,0,0,0,0,0,0,0,0,1,0,0,0,0
1055,'2025/06/17 09:39:27:316',10,0.462988,0.021023,0.004786,0.005887,-0.00869,0.050324,0.360987,0.042242,-0.228235,0.816642,0.014162,-0.388746,0.895614,-0.011569,-0.546757,0.937631,-0.018096,-0.312882,0.927886,-0.031666,0,0,0,0,0,0,0,0,0,0,1,0,0,0,0
1056,'2025/06/17 09:39:27:323',10,0.462988,0.021023,0.004786,0.005887,-0.00869,0.050324,0.360987,0.042242,-0.228235,0.816642,0.014162,-0.388746,0.895614,-0.011569,-0.546757,0.937631,-0.018096,-0.312882,0.927886,-0.031666,0,0,0,0,0,0,0,0,0,0,1,0,0,0,0
1057,'2025/06/17 09:39:27:329',10,0.462988,0.021023,0.004786,0.005887,-0.00869,0.050324,0.360987,0.042242,-0.228235,0.816642,0.014162,-0.388746,0.895614,-0.011569,-0.546757,0.937631,-0.018096,-0.312882,0.927886,-0.031666,0,0,0,0,0,0,0,0,0,0,1,0,0,0,0
1058,'2025/06/17 09:39:27:335',10,0.462988,0.021023,0.004786,0.005887,-0.00869,0.050324,0.360987,0.042242,-0.228235,0.816642,0.014162,-0.388746,0.895614,-0.011569,-0.546757,0.937631,-0.018096,-0.312882,0.927886,-0.031666,0,0,0,0,0,0,0,0,0,0,1,0,0,0,0
1059,'2025/06/17 09:39:27:343',10,0.462988,0.021023,0.004786,0.005887,-0.00869,0.050324,0.360987,0.042242,-0.228235,0.816642,0.014162,-0.388746,0.895614,-0.011569,-0.546757,0.937631,-0.018096,-0.312882,0.927886,-0.031666,0,0,0,0,0,0,0,0,0,0,1,0,0,0,0
1060,'2025/06/17 09:39:27:350',10,0.462988,0.021023,0.004786,0.005887,-0.00869,0.050324,0.360987,0.042242,-0.228235,0.816642,0.014162,-0.388746,0.895614,-0.011569,-0.546757,0.937631,-0.018096,-0.312882,0.927886,-0.031666,0,0,0,0,0,0,0,0,0,0,1,0,0,0,0
1061,'2025/06/17 09:39:27:356',10,0.462988,0.021023,0.004786,0.005887,-0.00869,0.050324,0.360987,0.042242,-0.228235,0.816642,0.014162,-0.388746,0.895614,-0.011569,-0.546757,0.937631,-0.018096,-0.312882,0.927886,-0.031666,0,0,0,0,0,0,0,0,0,0,1,0,0,0,0
1062,'2025/06/17 09:39:27:364',10,0.462988,0.021023,0.004786,0.005887,-0.00869,0.050324,0.360987,0.042242,-0.228235,0.816642,0.014162,-0.388746,0.895614,-0.011569,-0.546757,0.937631,-0.018096,-0.312882,0.927886,-0.031666,0,0,0,0,0,0,0,0,0,0,1,0,0,0,0
1063,'2025/06/17 09:40:07:146',11,0.350982,0.14946,0,-0.151003,-0.252329,-0.159842,0.118483,-0.154774,0.029988,-0.004264,-0.160712,0,0,-0.008008,-0.021636,0,0.14424,-0.036154,0,0.246509,0,0,0,0,0,0,0,0,0,0,0,1,0,0,0
1064,'2025/06/17 09:40:07:158',11,0.350982,0.14946,0,-0.151003,-0.252329,-0.159842,0.118483,-0.154774,0.029988,-0.004264,-0.160712,0,0,-0.008008,-0.021636,0,0.14424,-0.036154,0,0.246509,0,0,0,0,0,0,0,0,0,0,0,1,0,0,0
1065,'2025/06/17 09:40:07:169',11,0.350982,0.14946,0,-0.151003,-0.252329,-0.159842,0.118483,-0.154774,0.029988,-0.004264,-0.160712,0,0,-0.008008,-0.021636,0,0.14424,-0.036154,0,0.246509,0,0,0,0,0,0,0,0,0,0,0,1,0,0,0
1066,'2025/06/17 09:40:07:182',11,0.350982,0.14946,0,-0.151003,-0.252329,-0.159842,0.118483,-0.154774,0.029988,-0.004264,-0.160712,0,0,-0.008008,-0.021636,0,0.14424,-0.036154,0,0.246509,0,0,0,0,0,0,0,0,0,0,0,1,0,0,0
1067,'2025/06/17 09:40:07:192',11,0.350982,0.14946,0,-0.151003,-0.252329,-0.159842,0.118483,-0.154774,0.029988,-0.004264,-0.160712,0,0,-0.008008,-0.021636,0,0.14424,-0.036154,0,0.246509,0,0,0,0,0,0,0,0,0,0,0,1,0,0,0
1068,'2025/06/17 09:40:07:204',11,0.350982,0.14946,0,-0.151003,-0.252329,-0.159842,0.118483,-0.154774,0.029988,-0.004264,-0.160712,0,0,-0.008008,-0.021636,0,0.14424,-0.036154,0,0.246509,0,0,0,0,0,0,0,0,0,0,0,1,0,0,0
1069,'2025/06/17 09:40:07:216',11,0.350982,0.14946,0,-0.151003,-0.252329,-0.159842,0.118483,-0.154774,0.029988,-0.004264,-0.160712,0,0,-0.008008,-0.021636,0,0.14424,-0.036154,0,0.246509,0,0,0,0,0,0,0,0,0,0,0,1,0,0,0
1070,'2025/06/17 09:40:07:227',11,0.350982,0.14946,0,-0.151003,-0.252329,-0.159842,0.118483,-0.154774,0.029988,-0.004264,-0.160712,0,0,-0.008008,-0.021636,0,0.14424,-0.036154,0,0.246509,0,0,0,0,0,0,0,0,0,0,0,1,0,0,0
1071,'2025/06/17 09:40:07:239',11,0.350982,0.14946,0,-0.151003,-0.252329,-0.159842,0.118483,-0.154774,0.029988,-0.004264,-0.160712,0,0,-0.008008,-0.021636,0,0.14424,-0.036154,0,0.246509,0,0,0,0,0,0,0,0,0,0,0,1,0,0,0
1072,'2025/06/17 09:40:07:253',11,0.350982,0.14946,0,-0.151003,-0.252329,-0.159842,0.118483,-0.154774,0.029988,-0.004264,-0.160712,0,0,-0.008008,-0.021636,0,0.14424,-0.036154,0,0.246509,0,0,0,0,0,0,0,0,0,0,0,1,0,0,0
1073,'2025/06/17 09:40:07:265',11,0.350982,0.14946,0,-0.151003,-0.252329,-0.159842,0.118483,-0.154774,0.029988,-0.004264,-0.160712,0,0,-0.008008,-0.021636,0,0.14424,-0.036154,0,0.246509,0,0,0,0,0,0,0,0,0,0,0,1,0,0,0
1074,'2025/06/17 09:40:07:276',11,0.350982,0.14946,0,-0.151003,-0.252329,-0.159842,0.118483,-0.154774,0.029988,-0.004264,-0.160712,0,0,-0.008008,-0.021636,0,0.14424,-0.036154,0,0.246509,0,0,0,0,0,0,0,0,0,0,0,1,0,0,0
1075,'2025/06/17 09:40:07:288',11,0.350982,0.14946,0,-0.151003,-0.252329,-0.159842,0.118483,-0.154774,0.029988,-0.004264,-0.160712,0,0,-0.008008,-0.021636,0,0.14424,-0.036154,0,0.246509,0,0,0,0,0,0,0,0,0,0,0,1,0,0,0
1076,'2025/06/17 09:40:07:300',11,0.350982,0.14946,0,-0.151003,-0.252329,-0.159842,0.118483,-0.154774,0.029988,-0.004264,-0.160712,0,0,-0.008008,-0.021636,0,0.14424,-0.036154,0,0.246509,0,0,0,0,0,0,0,0,0,0,0,1,0,0,0
1077,'2025/06/17 09:40:07:310',11,0.350982,0.14946,0,-0.151003,-0.252329,-0.159842,0.118483,-0.154774,0.029988,-0.004264,-0.160712,0,0,-0.008008,-0.021636,0,0.14424,-0.036154,0,0.246509,0,0,0,0,0,0,0,0,0,0,0,1,0,0,0
1078,'2025/06/17 09:40:07:322',11,0.350982,0.14946,0,-0.151003,-0.252329,-0.159842,0.118483,-0.154774,0.029988,-0.004264,-0.160712,0,0,-0.008008,-0.021636,0,0.14424,-0.036154,0,0.246509,0,0,0,0,0,0,0,0,0,0,0,1,0,0,0
1079,'2025/06/17 09:40:07:335',11,0.350982,0.14946,0,-0.151003,-0.252329,-0.159842,0.118483,-0.154774,0.029988,-0.004264,-0.160712,0,0,-0.008008,-0.021636,0,0.14424,-0.036154,0,0.246509,0,0,0,0,0,0,0,0,0,0,0,1,0,0,0
1080,'2025/06/17 09:40:07:378',11,0.350982,0.14946,0,-0.151003,-0.252329,-0.159842,0.118483,-0.154774,0.029988,-0.004264,-0.160712,0,0,-0.008008,-0.021636,0,0.14424,-0.036154,0,0.246509,0,0,0,0,0,0,0,0,0,0,0,1,0,0,0
1081,'2025/06/17 09:40:07:388',11,0.350982,0.14946,0,-0.151003,-0.252329,-0.159842,0.118483,-0.154774,0.029988,-0.004264,-0.160712,0,0,-0.008008,-0.021636,0,0.14424,-0.036154,0,0.246509,0,0,0,0,0,0,0,0,0,0,0,1,0,0,0
1082,'2025/06/17 09:40:07:397',11,0.350982,0.14946,0,-0.151003,-0.252329,-0.159842,0.118483,-0.154774,0.029988,-0.004264,-0.160712,0,0,-0.008008,-0.021636,0,0.14424,-0.036154,0,0.246509,0,0,0,0,0,0,0,0,0,0,0,1,0,0,0
1083,'2025/06/17 09:40:07:406',11,0.350982,0.14946,0,-0.151003,-0.252329,-0.159842,0.118483,-0.154774,0.029988,-0.004264,-0.160712,0,0,-0.008008,-0.021636,0,0.14424,-0.036154,0,0.246509,0,0,0,0,0,0,0,0,0,0,0,1,0,0,0
1084,'2025/06/17 09:40:07:415',11,0.350982,0.14946,0,-0.151003,-0.252329,-0.159842,0.118483,-0.154774,0.029988,-0.004264,-0.160712,0,0,-0.008008,-0.021636,0,0.14424,-0.036154,0,0.246509,0,0,0,0,0,0,0,0,0,0,0,1,0,0,0
1085,'2025/06/17 09:40:07:425',11,0.350982,0.14946,0,-0.151003,-0.252329,-0.159842,0.118483,-0.154774,0.029988,-0.004264,-0.160712,0,0,-0.008008,-0.021636,0,0.14424,-0.036154,0,0.246509,0,0,0,0,0,0,0,0,0,0,0,1,0,0,0
1086,'2025/06/17 09:40:07:435',11,0.350982,0.14946,0,-0.151003,-0.252329,-0.159842,0.118483,-0.154774,0.029988,-0.004264,-0.160712,0,0,-0.008008,-0.021636,0,0.14424,-0.036154,0,0.246509,0,0,0,0,0,0,0,0,0,0,0,1,0,0,0
1087,'2025/06/17 09:40:07:444',11,0.350982,0.14946,0,-0.151003,-0.252329,-0.159842,0.118483,-0.154774,0.029988,-0.004264,-0.160712,0,0,-0.008008,-0.021636,0,0.14424,-0.036154,0,0.246509,0,0,0,0,0,0,0,0,0,0,0,1,0,0,0
1088,'2025/06/17 09:40:07:453',11,0.350982,0.14946,0,-0.151003,-0.252329,-0.159842,0.118483,-0.154774,0.029988,-0.004264,-0.160712,0,0,-0.008008,-0.021636,0,0.14424,-0.036154,0,0.246509,0,0,0,0,0,0,0,0,0,0,0,1,0,0,0
1089,'2025/06/17 09:40:07:463',11,0.350982,0.14946,0,-0.151003,-0.252329,-0.159842,0.118483,-0.154774,0.029988,-0.004264,-0.160712,0,0,-0.008008,-0.021636,0,0.14424,-0.036154,0,0.246509,0,0,0,0,0,0,0,0,0,0,0,1,0,0,0
1090,'2025/06/17 09:40:07:471',11,0.350982,0.14946,0,-0.151003,-0.252329,-0.159842,0.118483,-0.154774,0.029988,-0.004264,-0.160712,0,0,-0.008008,-0.021636,0,0.14424,-0.036154,0,0.246509,0,0,0,0,0,0,0,0,0,0,0,1,0,0,0
1091,'2025/06/17 09:40:07:478',11,0.350982,0.14946,0,-0.151003,-0.252329,-0.159842,0.118483,-0.154774,0.029988,-0.004264,-0.160712,0,0,-0.008008,-0.021636,0,0.14424,-0.036154,0,0.246509,0,0,0,0,0,0,0,0,0,0,0,1,0,0,0
1092,'2025/06/17 09:40:07:487',11,0.350982,0.14946,0,-0.151003,-0.252329,-0.159842,0.118483,-0.154774,0.029988,-0.004264,-0.160712,0,0,-0.008008,-0.021636,0,0.14424,-0.036154,0,0.246509,0,0,0,0,0,0,0,0,0,0,0,1,0,0,0
1093,'2025/06/17 09:40:07:496',11,0.350982,0.14946,0,-0.151003,-0.252329,-0.159842,0.118483,-0.154774,0.029988,-0.004264,-0.160712,0,0,-0.008008,-0.021636,0,0.14424,-0.036154,0,0.246509,0,0,0,0,0,0,0,0,0,0,0,1,0,0,0
1094,'2025/06/17 09:40:07:506',11,0.350982,0.14946,0,-0.151003,-0.252329,-0.159842,0.118483,-0.154774,0.029988,-0.004264,-0.160712,0,0,-0.008008,-0.021636,0,0.14424,-0.036154,0,0.246509,0,0,0,0,0,0,0,0,0,0,0,1,0,0,0
1095,'2025/06/17 09:40:07:513',11,0.350982,0.14946,0,-0.151003,-0.252329,-0.159842,0.118483,-0.154774,0.029988,-0.004264,-0.160712,0,0,-0.008008,-0.021636,0,0.14424,-0.036154,0,0.246509,0,0,0,0,0,0,0,0,0,0,0,1,0,0,0
1096,'2025/06/17 09:40:07:524',11,0.350982,0.14946,0,-0.151003,-0.252329,-0.159842,0.118483,-0.154774,0.029988,-0.004264,-0.160712,0,0,-0.008008,-0.021636,0,0.14424,-0.036154,0,0.246509,0,0,0,0,0,0,0,0,0,0,0,1,0,0,0
1097,'2025/06/17 09:40:07:532',11,0.350982,0.14946,0,-0.151003,-0.252329,-0.159842,0.118483,-0.154774,0.029988,-0.004264,-0.160712,0,0,-0.008008,-0.021636,0,0.14424,-0.036154,0,0.246509,0,0,0,0,0,0,0,0,0,0,0,1,0,0,0
1098,'2025/06/17 09:40:07:542',11,0.350982,0.14946,0,-0.151003,-0.252329,-0.159842,0.118483,-0.154774,0.029988,-0.004264,-0.160712,0,0,-0.008008,-0.021636,0,0.14424,-0.036154,0,0.246509,0,0,0,0,0,0,0,0,0,0,0,1,0,0,0
1099,'2025/06/17 09:40:07:550',11,0.350982,0.14946,0,-0.151003,-0.252329,-0.159842,0.118483,-0.154774,0.029988,-0.004264,-0.160712,0,0,-0.008008,-0.021636,0,0.14424,-0.036154,0,0.246509,0,0,0,0,0,0,0,0,0,0,0,1,0,0,0
1100,'2025/06/17 09:40:07:555',11,0.350982,0.14946,0,-0.151003,-0.252329,-0.159842,0.118483,-0.154774,0.029988,-0.004264,-0.160712,0,0,-0.008008,-0.021636,0,0.14424,-0.036154,0,0.246509,0,0,0,0,0,0,0,0,0,0,0,1,0,0,0
1101,'2025/06/17 09:40:07:563',11,0.350982,0.14946,0,-0.151003,-0.252329,-0.159842,0.118483,-0.154774,0.029988,-0.004264,-0.160712,0,0,-0.008008,-0.021636,0,0.14424,-0.036154,0,0.246509,0,0,0,0,0,0,0,0,0,0,0,1,0,0,0
1102,'2025/06/17 09:40:07:569',11,0.350982,0.14946,0,-0.151003,-0.252329,-0.159842,0.118483,-0.154774,0.029988,-0.004264,-0.160712,0,0,-0.008008,-0.021636,0,0.14424,-0.036154,0,0.246509,0,0,0,0,0,0,0,0,0,0,0,1,0,0,0
1103,'2025/06/17 09:40:07:576',11,0.350982,0.14946,0,-0.151003,-0.252329,-0.159842,0.118483,-0.154774,0.029988,-0.004264,-0.160712,0,0,-0.008008,-0.021636,0,0.14424,-0.036154,0,0.246509,0,0,0,0,0,0,0,0,0,0,0,1,0,0,0
1104,'2025/06/17 09:40:07:583',11,0.350982,0.14946,0,-0.151003,-0.252329,-0.159842,0.118483,-0.154774,0.029988,-0.004264,-0.160712,0,0,-0.008008,-0.021636,0,0.14424,-0.036154,0,0.246509,0,0,0,0,0,0,0,0,0,0,0,1,0,0,0
1105,'2025/06/17 09:40:07:591',11,0.350982,0.14946,0,-0.151003,-0.252329,-0.159842,0.118483,-0.154774,0.029988,-0.004264,-0.160712,0,0,-0.008008,-0.021636,0,0.14424,-0.036154,0,0.246509,0,0,0,0,0,0,0,0,0,0,0,1,0,0,0
1106,'2025/06/17 09:40:07:598',11,0.350982,0.14946,0,-0.151003,-0.252329,-0.159842,0.118483,-0.154774,0.029988,-0.004264,-0.160712,0,0,-0.008008,-0.021636,0,0.14424,-0.036154,0,0.246509,0,0,0,0,0,0,0,0,0,0,0,1,0,0,0
1107,'2025/06/17 09:40:07:604',11,0.350982,0.14946,0,-0.151003,-0.252329,-0.159842,0.118483,-0.154774,0.029988,-0.004264,-0.160712,0,0,-0.008008,-0.021636,0,0.14424,-0.036154,0,0.246509,0,0,0,0,0,0,0,0,0,0,0,1,0,0,0
1108,'2025/06/17 09:40:07:612',11,0.350982,0.14946,0,-0.151003,-0.252329,-0.159842,0.118483,-0.154774,0.029988,-0.004264,-0.160712,0,0,-0.008008,-0.021636,0,0.14424,-0.036154,0,0.246509,0,0,0,0,0,0,0,0,0,0,0,1,0,0,0
1109,'2025/06/17 09:40:07:619',11,0.350982,0.14946,0,-0.151003,-0.252329,-0.159842,0.118483,-0.154774,0.029988,-0.004264,-0.160712,0,0,-0.008008,-0.021636,0,0.14424,-0.036154,0,0.246509,0,0,0,0,0,0,0,0,0,0,0,1,0,0,0
1110,'2025/06/17 09:40:07:627',11,0.350982,0.14946,0,-0.151003,-0.252329,-0.159842,0.118483,-0.154774,0.029988,-0.004264,-0.160712,0,0,-0.008008,-0.021636,0,0.14424,-0.036154,0,0.246509,0,0,0,0,0,0,0,0,0,0,0,1,0,0,0
1111,'2025/06/17 09:40:07:632',11,0.350982,0.14946,0,-0.151003,-0.252329,-0.159842,0.118483,-0.154774,0.029988,-0.004264,-0.160712,0,0,-0.008008,-0.021636,0,0.14424,-0.036154,0,0.246509,0,0,0,0,0,0,0,0,0,0,0,1,0,0,0
1112,'2025/06/17 09:40:07:640',11,0.350982,0.14946,0,-0.151003,-0.252329,-0.159842,0.118483,-0.154774,0.029988,-0.004264,-0.160712,0,0,-0.008008,-0.021636,0,0.14424,-0.036154,0,0.246509,0,0,0,0,0,0,0,0,0,0,0,1,0,0,0
1113,'2025/06/17 09:40:07:646',11,0.350982,0.14946,0,-0.151003,-0.252329,-0.159842,0.118483,-0.154774,0.029988,-0.004264,-0.160712,0,0,-0.008008,-0.021636,0,0.14424,-0.036154,0,0.246509,0,0,0,0,0,0,0,0,0,0,0,1,0,0,0
1114,'2025/06/17 09:40:07:655',11,0.350982,0.14946,0,-0.151003,-0.252329,-0.159842,0.118483,-0.154774,0.029988,-0.004264,-0.160712,0,0,-0.008008,-0.021636,0,0.14424,-0.036154,0,0.246509,0,0,0,0,0,0,0,0,0,0,0,1,0,0,0
1115,'2025/06/17 09:40:07:662',11,0.350982,0.14946,0,-0.151003,-0.252329,-0.159842,0.118483,-0.154774,0.029988,-0.004264,-0.160712,0,0,-0.008008,-0.021636,0,0.14424,-0.036154,0,0.246509,0,0,0,0,0,0,0,0,0,0,0,1,0,0,0
1116,'2025/06/17 09:40:07:671',11,0.350982,0.14946,0,-0.151003,-0.252329,-0.159842,0.118483,-0.154774,0.029988,-0.004264,-0.160712,0,0,-0.008008,-0.021636,0,0.14424,-0.036154,0,0.246509,0,0,0,0,0,0,0,0,0,0,0,1,0,0,0
1117,'2025/06/17 09:40:07:677',11,0.350982,0.14946,0,-0.151003,-0.252329,-0.159842,0.118483,-0.154774,0.029988,-0.004264,-0.160712,0,0,-0.008008,-0.021636,0,0.14424,-0.036154,0,0.246509,0,0,0,0,0,0,0,0,0,0,0,1,0,0,0
1118,'2025/06/17 09:40:07:685',11,0.350982,0.14946,0,-0.151003,-0.252329,-0.159842,0.118483,-0.154774,0.029988,-0.004264,-0.160712,0,0,-0.008008,-0.021636,0,0.14424,-0.036154,0,0.246509,0,0,0,0,0,0,0,0,0,0,0,1,0,0,0
1119,'2025/06/17 09:40:07:691',11,0.350982,0.14946,0,-0.151003,-0.252329,-0.159842,0.118483,-0.154774,0.029988,-0.004264,-0.160712,0,0,-0.008008,-0.021636,0,0.14424,-0.036154,0,0.246509,0,0,0,0,0,0,0,0,0,0,0,1,0,0,0
1120,'2025/06/17 09:40:07:698',11,0.350982,0.14946,0,-0.151003,-0.252329,-0.159842,0.118483,-0.154774,0.029988,-0.004264,-0.160712,0,0,-0.008008,-0.021636,0,0.14424,-0.036154,0,0.246509,0,0,0,0,0,0,0,0,0,0,0,1,0,0,0
1121,'2025/06/17 09:40:07:704',11,0.350982,0.14946,0,-0.151003,-0.252329,-0.159842,0.118483,-0.154774,0.029988,-0.004264,-0.160712,0,0,-0.008008,-0.021636,0,0.14424,-0.036154,0,0.246509,0,0,0,0,0,0,0,0,0,0,0,1,0,0,0
1122,'2025/06/17 09:40:07:711',11,0.350982,0.14946,0,-0.151003,-0.252329,-0.159842,0.118483,-0.154774,0.029988,-0.004264,-0.160712,0,0,-0.008008,-0.021636,0,0.14424,-0.036154,0,0.246509,0,0,0,0,0,0,0,0,0,0,0,1,0,0,0
1123,'2025/06/17 09:40:07:717',11,0.350982,0.14946,0,-0.151003,-0.252329,-0.159842,0.118483,-0.154774,0.029988,-0.004264,-0.160712,0,0,-0.008008,-0.021636,0,0.14424,-0.036154,0,0.246509,0,0,0,0,0,0,0,0,0,0,0,1,0,0,0
1124,'2025/06/17 09:40:07:724',11,0.350982,0.14946,0,-0.151003,-0.252329,-0.159842,0.118483,-0.154774,0.029988,-0.004264,-0.160712,0,0,-0.008008,-0.021636,0,0.14424,-0.036154,0,0.246509,0,0,0,0,0,0,0,0,0,0,0,1,0,0,0
1125,'2025/06/17 09:40:07:731',11,0.350982,0.14946,0,-0.151003,-0.252329,-0.159842,0.118483,-0.154774,0.029988,-0.004264,-0.160712,0,0,-0.008008,-0.021636,0,0.14424,-0.036154,0,0.246509,0,0,0,0,0,0,0,0,0,0,0,1,0,0,0
1126,'2025/06/17 09:40:07:738',11,0.350982,0.14946,0,-0.151003,-0.252329,-0.159842,0.118483,-0.154774,0.029988,-0.004264,-0.160712,0,0,-0.008008,-0.021636,0,0.14424,-0.036154,0,0.246509,0,0,0,0,0,0,0,0,0,0,0,1,0,0,0
1127,'2025/06/17 09:40:07:745',11,0.350982,0.14946,0,-0.151003,-0.252329,-0.159842,0.118483,-0.154774,0.029988,-0.004264,-0.160712,0,0,-0.008008,-0.021636,0,0.14424,-0.036154,0,0.246509,0,0,0,0,0,0,0,0,0,0,0,1,0,0,0
1128,'2025/06/17 09:40:07:752',11,0.350982,0.14946,0,-0.151003,-0.252329,-0.159842,0.118483,-0.154774,0.029988,-0.004264,-0.160712,0,0,-0.008008,-0.021636,0,0.14424,-0.036154,0,0.246509,0,0,0,0,0,0,0,0,0,0,0,1,0,0,0
1129,'2025/06/17 09:40:07:759',11,0.350982,0.14946,0,-0.151003,-0.252329,-0.159842,0.118483,-0.154774,0.029988,-0.004264,-0.160712,0,0,-0.008008,-0.021636,0,0.14424,-0.036154,0,0.246509,0,0,0,0,0,0,0,0,0,0,0,1,0,0,0
1130,'2025/06/17 09:40:07:767',11,0.350982,0.14946,0,-0.151003,-0.252329,-0.159842,0.118483,-0.154774,0.029988,-0.004264,-0.160712,0,0,-0.008008,-0.021636,0,0.14424,-0.036154,0,0.246509,0,0,0,0,0,0,0,0,0,0,0,1,0,0,0
1131,'2025/06/17 09:40:07:774',11,0.350982,0.14946,0,-0.151003,-0.252329,-0.159842,0.118483,-0.154774,0.029988,-0.004264,-0.160712,0,0,-0.008008,-0.021636,0,0.14424,-0.036154,0,0.246509,0,0,0,0,0,0,0,0,0,0,0,1,0,0,0
1132,'2025/06/17 09:40:07:781',11,0.350982,0.14946,0,-0.151003,-0.252329,-0.159842,0.118483,-0.154774,0.029988,-0.004264,-0.160712,0,0,-0.008008,-0.021636,0,0.14424,-0.036154,0,0.246509,0,0,0,0,0,0,0,0,0,0,0,1,0,0,0
1133,'2025/06/17 09:40:07:787',11,0.350982,0.14946,0,-0.151003,-0.252329,-0.159842,0.118483,-0.154774,0.029988,-0.004264,-0.160712,0,0,-0.008008,-0.021636,0,0.14424,-0.036154,0,0.246509,0,0,0,0,0,0,0,0,0,0,0,1,0,0,0
1134,'2025/06/17 09:40:07:795',11,0.350982,0.14946,0,-0.151003,-0.252329,-0.159842,0.118483,-0.154774,0.029988,-0.004264,-0.160712,0,0,-0.008008,-0.021636,0,0.14424,-0.036154,0,0.246509,0,0,0,0,0,0,0,0,0,0,0,1,0,0,0
1135,'2025/06/17 09:40:07:802',11,0.350982,0.14946,0,-0.151003,-0.252329,-0.159842,0.118483,-0.154774,0.029988,-0.004264,-0.160712,0,0,-0.008008,-0.021636,0,0.14424,-0.036154,0,0.246509,0,0,0,0,0,0,0,0,0,0,0,1,0,0,0
1136,'2025/06/17 09:40:07:808',11,0.350982,0.14946,0,-0.151003,-0.252329,-0.159842,0.118483,-0.154774,0.029988,-0.004264,-0.160712,0,0,-0.008008,-0.021636,0,0.14424,-0.036154,0,0.246509,0,0,0,0,0,0,0,0,0,0,0,1,0,0,0
1137,'2025/06/17 09:40:07:813',11,0.350982,0.14946,0,-0.151003,-0.252329,-0.159842,0.118483,-0.154774,0.029988,-0.004264,-0.160712,0,0,-0.008008,-0.021636,0,0.14424,-0.036154,0,0.246509,0,0,0,0,0,0,0,0,0,0,0,1,0,0,0
1138,'2025/06/17 09:40:07:819',11,0.350982,0.14946,0,-0.151003,-0.252329,-0.159842,0.118483,-0.154774,0.029988,-0.004264,-0.160712,0,0,-0.008008,-0.021636,0,0.14424,-0.036154,0,0.246509,0,0,0,0,0,0,0,0,0,0,0,1,0,0,0
1139,'2025/06/17 09:40:07:827',11,0.350982,0.14946,0,-0.151003,-0.252329,-0.159842,0.118483,-0.154774,0.029988,-0.004264,-0.160712,0,0,-0.008008,-0.021636,0,0.14424,-0.036154,0,0.246509,0,0,0,0,0,0,0,0,0,0,0,1,0,0,0
1140,'2025/06/17 09:40:07:834',11,0.350982,0.14946,0,-0.151003,-0.252329,-0.159842,0.118483,-0.154774,0.029988,-0.004264,-0.160712,0,0,-0.008008,-0.021636,0,0.14424,-0.036154,0,0.246509,0,0,0,0,0,0,0,0,0,0,0,1,0,0,0
1141,'2025/06/17 09:40:07:841',11,0.350982,0.14946,0,-0.151003,-0.252329,-0.159842,0.118483,-0.154774,0.029988,-0.004264,-0.160712,0,0,-0.008008,-0.021636,0,0.14424,-0.036154,0,0.246509,0,0,0,0,0,0,0,0,0,0,0,1,0,0,0
1142,'2025/06/17 09:40:07:848',11,0.350982,0.14946,0,-0.151003,-0.252329,-0.159842,0.118483,-0.154774,0.029988,-0.004264,-0.160712,0,0,-0.008008,-0.021636,0,0.14424,-0.036154,0,0.246509,0,0,0,0,0,0,0,0,0,0,0,1,0,0,0
1143,'2025/06/17 09:40:07:855',11,0.350982,0.14946,0,-0.151003,-0.252329,-0.159842,0.118483,-0.154774,0.029988,-0.004264,-0.160712,0,0,-0.008008,-0.021636,0,0.14424,-0.036154,0,0.246509,0,0,0,0,0,0,0,0,0,0,0,1,0,0,0
1144,'2025/06/17 09:40:07:862',11,0.350982,0.14946,0,-0.151003,-0.252329,-0.159842,0.118483,-0.154774,0.029988,-0.004264,-0.160712,0,0,-0.008008,-0.021636,0,0.14424,-0.036154,0,0.246509,0,0,0,0,0,0,0,0,0,0,0,1,0,0,0
1145,'2025/06/17 09:40:07:869',11,0.350982,0.14946,0,-0.151003,-0.252329,-0.159842,0.118483,-0.154774,0.029988,-0.004264,-0.160712,0,0,-0.008008,-0.021636,0,0.14424,-0.036154,0,0.246509,0,0,0,0,0,0,0,0,0,0,0,1,0,0,0
1146,'2025/06/17 09:40:07:875',11,0.350982,0.14946,0,-0.151003,-0.252329,-0.159842,0.118483,-0.154774,0.029988,-0.004264,-0.160712,0,0,-0.008008,-0.021636,0,0.14424,-0.036154,0,0.246509,0,0,0,0,0,0,0,0,0,0,0,1,0,0,0
1147,'2025/06/17 09:40:07:882',11,0.350982,0.14946,0,-0.151003,-0.252329,-0.159842,0.118483,-0.154774,0.029988,-0.004264,-0.160712,0,0,-0.008008,-0.021636,0,0.14424,-0.036154,0,0.246509,0,0,0,0,0,0,0,0,0,0,0,1,0,0,0
1148,'2025/06/17 09:40:07:888',11,0.350982,0.14946,0,-0.151003,-0.252329,-0.159842,0.118483,-0.154774,0.029988,-0.004264,-0.160712,0,0,-0.008008,-0.021636,0,0.14424,-0.036154,0,0.246509,0,0,0,0,0,0,0,0,0,0,0,1,0,0,0
1149,'2025/06/17 09:40:07:894',11,0.350982,0.14946,0,-0.151003,-0.252329,-0.159842,0.118483,-0.154774,0.029988,-0.004264,-0.160712,0,0,-0.008008,-0.021636,0,0.14424,-0.036154,0,0.246509,0,0,0,0,0,0,0,0,0,0,0,1,0,0,0
1150,'2025/06/17 09:40:07:902',11,0.350982,0.14946,0,-0.151003,-0.252329,-0.159842,0.118483,-0.154774,0.029988,-0.004264,-0.160712,0,0,-0.008008,-0.021636,0,0.14424,-0.036154,0,0.246509,0,0,0,0,0,0,0,0,0,0,0,1,0,0,0
1151,'2025/06/17 09:40:07:907',11,0.350982,0.14946,0,-0.151003,-0.252329,-0.159842,0.118483,-0.154774,0.029988,-0.004264,-0.160712,0,0,-0.008008,-0.021636,0,0.14424,-0.036154,0,0.246509,0,0,0,0,0,0,0,0,0,0,0,1,0,0,0
1152,'2025/06/17 09:40:07:913',11,0.350982,0.14946,0,-0.151003,-0.252329,-0.159842,0.118483,-0.154774,0.029988,-0.004264,-0.160712,0,0,-0.008008,-0.021636,0,0.14424,-0.036154,0,0.246509,0,0,0,0,0,0,0,0,0,0,0,1,0,0,0
1153,'2025/06/17 09:40:07:921',11,0.350982,0.14946,0,-0.151003,-0.252329,-0.159842,0.118483,-0.154774,0.029988,-0.004264,-0.160712,0,0,-0.008008,-0.021636,0,0.14424,-0.036154,0,0.246509,0,0,0,0,0,0,0,0,0,0,0,1,0,0,0
1154,'2025/06/17 09:40:07:927',11,0.350982,0.14946,0,-0.151003,-0.252329,-0.159842,0.118483,-0.154774,0.029988,-0.004264,-0.160712,0,0,-0.008008,-0.021636,0,0.14424,-0.036154,0,0.246509,0,0,0,0,0,0,0,0,0,0,0,1,0,0,0
1155,'2025/06/17 09:42:02:126',12,0.253506,-0.009313,-0.017281,-0.021013,-0.01441,0.14419,0.190384,0.032031,0.057074,0.340108,0.008101,0.057749,0.376638,-0.004423,0.127593,0.282783,-0.005528,0.08704,0.454686,-0.026752,0,0,0,0,0,0,0,0,0,0,0,0,1,0,0
1156,'2025/06/17 09:42:02:133',12,0.253506,-0.009313,-0.017281,-0.021013,-0.01441,0.14419,0.190384,0.032031,0.057074,0.340108,0.008101,0.057749,0.376638,-0.004423,0.127593,0.282783,-0.005528,0.08704,0.454686,-0.026752,0,0,0,0,0,0,0,0,0,0,0,0,1,0,0
1157,'2025/06/17 09:42:02:140',12,0.253506,-0.009313,-0.017281,-0.021013,-0.01441,0.14419,0.190384,0.032031,0.057074,0.340108,0.008101,0.057749,0.376638,-0.004423,0.127593,0.282783,-0.005528,0.08704,0.454686,-0.026752,0,0,0,0,0,0,0,0,0,0,0,0,1,0,0
1158,'2025/06/17 09:42:02:145',12,0.253506,-0.009313,-0.017281,-0.021013,-0.01441,0.14419,0.190384,0.032031,0.057074,0.340108,0.008101,0.057749,0.376638,-0.004423,0.127593,0.282783,-0.005528,0.08704,0.454686,-0.026752,0,0,0,0,0,0,0,0,0,0,0,0,1,0,0
1159,'2025/06/17 09:42:02:152',12,0.253506,-0.009313,-0.017281,-0.021013,-0.01441,0.14419,0.190384,0.032031,0.057074,0.340108,0.008101,0.057749,0.376638,-0.004423,0.127593,0.282783,-0.005528,0.08704,0.454686,-0.026752,0,0,0,0,0,0,0,0,0,0,0,0,1,0,0
1160,'2025/06/17 09:42:02:158',12,0.253506,-0.009313,-0.017281,-0.021013,-0.01441,0.14419,0.190384,0.032031,0.057074,0.340108,0.008101,0.057749,0.376638,-0.004423,0.127593,0.282783,-0.005528,0.08704,0.454686,-0.026752,0,0,0,0,0,0,0,0,0,0,0,0,1,0,0
1161,'2025/06/17 09:42:02:165',12,0.253506,-0.009313,-0.017281,-0.021013,-0.01441,0.14419,0.190384,0.032031,0.057074,0.340108,0.008101,0.057749,0.376638,-0.004423,0.127593,0.282783,-0.005528,0.08704,0.454686,-0.026752,0,0,0,0,0,0,0,0,0,0,0,0,1,0,0
1162,'2025/06/17 09:42:02:174',12,0.253506,-0.009313,-0.017281,-0.021013,-0.01441,0.14419,0.190384,0.032031,0.057074,0.340108,0.008101,0.057749,0.376638,-0.004423,0.127593,0.282783,-0.005528,0.08704,0.454686,-0.026752,0,0,0,0,0,0,0,0,0,0,0,0,1,0,0
1163,'2025/06/17 09:42:02:178',12,0.253506,-0.009313,-0.017281,-0.021013,-0.01441,0.14419,0.190384,0.032031,0.057074,0.340108,0.008101,0.057749,0.376638,-0.004423,0.127593,0.282783,-0.005528,0.08704,0.454686,-0.026752,0,0,0,0,0,0,0,0,0,0,0,0,1,0,0
1164,'2025/06/17 09:42:02:187',12,0.253506,-0.009313,-0.017281,-0.021013,-0.01441,0.14419,0.190384,0.032031,0.057074,0.340108,0.008101,0.057749,0.376638,-0.004423,0.127593,0.282783,-0.005528,0.08704,0.454686,-0.026752,0,0,0,0,0,0,0,0,0,0,0,0,1,0,0
1165,'2025/06/17 09:42:02:192',12,0.253506,-0.009313,-0.017281,-0.021013,-0.01441,0.14419,0.190384,0.032031,0.057074,0.340108,0.008101,0.057749,0.376638,-0.004423,0.127593,0.282783,-0.005528,0.08704,0.454686,-0.026752,0,0,0,0,0,0,0,0,0,0,0,0,1,0,0
1166,'2025/06/17 09:42:02:198',12,0.253506,-0.009313,-0.017281,-0.021013,-0.01441,0.14419,0.190384,0.032031,0.057074,0.340108,0.008101,0.057749,0.376638,-0.004423,0.127593,0.282783,-0.005528,0.08704,0.454686,-0.026752,0,0,0,0,0,0,0,0,0,0,0,0,1,0,0
1167,'2025/06/17 09:42:02:207',12,0.253506,-0.009313,-0.017281,-0.021013,-0.01441,0.14419,0.190384,0.032031,0.057074,0.340108,0.008101,0.057749,0.376638,-0.004423,0.127593,0.282783,-0.005528,0.08704,0.454686,-0.026752,0,0,0,0,0,0,0,0,0,0,0,0,1,0,0
1168,'2025/06/17 09:42:02:212',12,0.253506,-0.009313,-0.017281,-0.021013,-0.01441,0.14419,0.190384,0.032031,0.057074,0.340108,0.008101,0.057749,0.376638,-0.004423,0.127593,0.282783,-0.005528,0.08704,0.454686,-0.026752,0,0,0,0,0,0,0,0,0,0,0,0,1,0,0
1169,'2025/06/17 09:42:02:218',12,0.253506,-0.009313,-0.017281,-0.021013,-0.01441,0.14419,0.190384,0.032031,0.057074,0.340108,0.008101,0.057749,0.376638,-0.004423,0.127593,0.282783,-0.005528,0.08704,0.454686,-0.026752,0,0,0,0,0,0,0,0,0,0,0,0,1,0,0
1170,'2025/06/17 09:42:02:226',12,0.253506,-0.009313,-0.017281,-0.021013,-0.01441,0.14419,0.190384,0.032031,0.057074,0.340108,0.008101,0.057749,0.376638,-0.004423,0.127593,0.282783,-0.005528,0.08704,0.454686,-0.026752,0,0,0,0,0,0,0,0,0,0,0,0,1,0,0
1171,'2025/06/17 09:42:02:234',12,0.253506,-0.009313,-0.017281,-0.021013,-0.01441,0.14419,0.190384,0.032031,0.057074,0.340108,0.008101,0.057749,0.376638,-0.004423,0.127593,0.282783,-0.005528,0.08704,0.454686,-0.026752,0,0,0,0,0,0,0,0,0,0,0,0,1,0,0
1172,'2025/06/17 09:42:02:239',12,0.253506,-0.009313,-0.017281,-0.021013,-0.01441,0.14419,0.190384,0.032031,0.057074,0.340108,0.008101,0.057749,0.376638,-0.004423,0.127593,0.282783,-0.005528,0.08704,0.454686,-0.026752,0,0,0,0,0,0,0,0,0,0,0,0,1,0,0
1173,'2025/06/17 09:42:02:248',12,0.253506,-0.009313,-0.017281,-0.021013,-0.01441,0.14419,0.190384,0.032031,0.057074,0.340108,0.008101,0.057749,0.376638,-0.004423,0.127593,0.282783,-0.005528,0.08704,0.454686,-0.026752,0,0,0,0,0,0,0,0,0,0,0,0,1,0,0
1174,'2025/06/17 09:42:02:253',12,0.253506,-0.009313,-0.017281,-0.021013,-0.01441,0.14419,0.190384,0.032031,0.057074,0.340108,0.008101,0.057749,0.376638,-0.004423,0.127593,0.282783,-0.005528,0.08704,0.454686,-0.026752,0,0,0,0,0,0,0,0,0,0,0,0,1,0,0
1175,'2025/06/17 09:42:02:258',12,0.253506,-0.009313,-0.017281,-0.021013,-0.01441,0.14419,0.190384,0.032031,0.057074,0.340108,0.008101,0.057749,0.376638,-0.004423,0.127593,0.282783,-0.005528,0.08704,0.454686,-0.026752,0,0,0,0,0,0,0,0,0,0,0,0,1,0,0
1176,'2025/06/17 09:42:02:266',12,0.253506,-0.009313,-0.017281,-0.021013,-0.01441,0.14419,0.190384,0.032031,0.057074,0.340108,0.008101,0.057749,0.376638,-0.004423,0.127593,0.282783,-0.005528,0.08704,0.454686,-0.026752,0,0,0,0,0,0,0,0,0,0,0,0,1,0,0
1177,'2025/06/17 09:42:02:273',12,0.253506,-0.009313,-0.017281,-0.021013,-0.01441,0.14419,0.190384,0.032031,0.057074,0.340108,0.008101,0.057749,0.376638,-0.004423,0.127593,0.282783,-0.005528,0.08704,0.454686,-0.026752,0,0,0,0,0,0,0,0,0,0,0,0,1,0,0
1178,'2025/06/17 09:42:02:282',12,0.253506,-0.009313,-0.017281,-0.021013,-0.01441,0.14419,0.190384,0.032031,0.057074,0.340108,0.008101,0.057749,0.376638,-0.004423,0.127593,0.282783,-0.005528,0.08704,0.454686,-0.026752,0,0,0,0,0,0,0,0,0,0,0,0,1,0,0
1179,'2025/06/17 09:42:02:288',12,0.253506,-0.009313,-0.017281,-0.021013,-0.01441,0.14419,0.190384,0.032031,0.057074,0.340108,0.008101,0.057749,0.376638,-0.004423,0.127593,0.282783,-0.005528,0.08704,0.454686,-0.026752,0,0,0,0,0,0,0,0,0,0,0,0,1,0,0
1180,'2025/06/17 09:42:02:294',12,0.253506,-0.009313,-0.017281,-0.021013,-0.01441,0.14419,0.190384,0.032031,0.057074,0.340108,0.008101,0.057749,0.376638,-0.004423,0.127593,0.282783,-0.005528,0.08704,0.454686,-0.026752,0,0,0,0,0,0,0,0,0,0,0,0,1,0,0
1181,'2025/06/17 09:42:02:301',12,0.253506,-0.009313,-0.017281,-0.021013,-0.01441,0.14419,0.190384,0.032031,0.057074,0.340108,0.008101,0.057749,0.376638,-0.004423,0.127593,0.282783,-0.005528,0.08704,0.454686,-0.026752,0,0,0,0,0,0,0,0,0,0,0,0,1,0,0
1182,'2025/06/17 09:42:02:308',12,0.253506,-0.009313,-0.017281,-0.021013,-0.01441,0.14419,0.190384,0.032031,0.057074,0.340108,0.008101,0.057749,0.376638,-0.004423,0.127593,0.282783,-0.005528,0.08704,0.454686,-0.026752,0,0,0,0,0,0,0,0,0,0,0,0,1,0,0
1183,'2025/06/17 09:42:02:315',12,0.253506,-0.009313,-0.017281,-0.021013,-0.01441,0.14419,0.190384,0.032031,0.057074,0.340108,0.008101,0.057749,0.376638,-0.004423,0.127593,0.282783,-0.005528,0.08704,0.454686,-0.026752,0,0,0,0,0,0,0,0,0,0,0,0,1,0,0
1184,'2025/06/17 09:42:02:321',12,0.253506,-0.009313,-0.017281,-0.021013,-0.01441,0.14419,0.190384,0.032031,0.057074,0.340108,0.008101,0.057749,0.376638,-0.004423,0.127593,0.282783,-0.005528,0.08704,0.454686,-0.026752,0,0,0,0,0,0,0,0,0,0,0,0,1,0,0
1185,'2025/06/17 09:42:02:328',12,0.253506,-0.009313,-0.017281,-0.021013,-0.01441,0.14419,0.190384,0.032031,0.057074,0.340108,0.008101,0.057749,0.376638,-0.004423,0.127593,0.282783,-0.005528,0.08704,0.454686,-0.026752,0,0,0,0,0,0,0,0,0,0,0,0,1,0,0
1186,'2025/06/17 09:42:02:335',12,0.253506,-0.009313,-0.017281,-0.021013,-0.01441,0.14419,0.190384,0.032031,0.057074,0.340108,0.008101,0.057749,0.376638,-0.004423,0.127593,0.282783,-0.005528,0.08704,0.454686,-0.026752,0,0,0,0,0,0,0,0,0,0,0,0,1,0,0
1187,'2025/06/17 09:42:02:342',12,0.253506,-0.009313,-0.017281,-0.021013,-0.01441,0.14419,0.190384,0.032031,0.057074,0.340108,0.008101,0.057749,0.376638,-0.004423,0.127593,0.282783,-0.005528,0.08704,0.454686,-0.026752,0,0,0,0,0,0,0,0,0,0,0,0,1,0,0
1188,'2025/06/17 09:42:02:349',12,0.253506,-0.009313,-0.017281,-0.021013,-0.01441,0.14419,0.190384,0.032031,0.057074,0.340108,0.008101,0.057749,0.376638,-0.004423,0.127593,0.282783,-0.005528,0.08704,0.454686,-0.026752,0,0,0,0,0,0,0,0,0,0,0,0,1,0,0
1189,'2025/06/17 09:42:02:357',12,0.253506,-0.009313,-0.017281,-0.021013,-0.01441,0.14419,0.190384,0.032031,0.057074,0.340108,0.008101,0.057749,0.376638,-0.004423,0.127593,0.282783,-0.005528,0.08704,0.454686,-0.026752,0,0,0,0,0,0,0,0,0,0,0,0,1,0,0
1190,'2025/06/17 09:42:02:364',12,0.253506,-0.009313,-0.017281,-0.021013,-0.01441,0.14419,0.190384,0.032031,0.057074,0.340108,0.008101,0.057749,0.376638,-0.004423,0.127593,0.282783,-0.005528,0.08704,0.454686,-0.026752,0,0,0,0,0,0,0,0,0,0,0,0,1,0,0
1191,'2025/06/17 09:42:02:371',12,0.253506,-0.009313,-0.017281,-0.021013,-0.01441,0.14419,0.190384,0.032031,0.057074,0.340108,0.008101,0.057749,0.376638,-0.004423,0.127593,0.282783,-0.005528,0.08704,0.454686,-0.026752,0,0,0,0,0,0,0,0,0,0,0,0,1,0,0
1192,'2025/06/17 09:42:02:377',12,0.253506,-0.009313,-0.017281,-0.021013,-0.01441,0.14419,0.190384,0.032031,0.057074,0.340108,0.008101,0.057749,0.376638,-0.004423,0.127593,0.282783,-0.005528,0.08704,0.454686,-0.026752,0,0,0,0,0,0,0,0,0,0,0,0,1,0,0
1193,'2025/06/17 09:42:02:383',12,0.253506,-0.009313,-0.017281,-0.021013,-0.01441,0.14419,0.190384,0.032031,0.057074,0.340108,0.008101,0.057749,0.376638,-0.004423,0.127593,0.282783,-0.005528,0.08704,0.454686,-0.026752,0,0,0,0,0,0,0,0,0,0,0,0,1,0,0
1194,'2025/06/17 09:42:02:390',12,0.253506,-0.009313,-0.017281,-0.021013,-0.01441,0.14419,0.190384,0.032031,0.057074,0.340108,0.008101,0.057749,0.376638,-0.004423,0.127593,0.282783,-0.005528,0.08704,0.454686,-0.026752,0,0,0,0,0,0,0,0,0,0,0,0,1,0,0
1195,'2025/06/17 09:42:02:396',12,0.253506,-0.009313,-0.017281,-0.021013,-0.01441,0.14419,0.190384,0.032031,0.057074,0.340108,0.008101,0.057749,0.376638,-0.004423,0.127593,0.282783,-0.005528,0.08704,0.454686,-0.026752,0,0,0,0,0,0,0,0,0,0,0,0,1,0,0
1196,'2025/06/17 09:42:02:405',12,0.253506,-0.009313,-0.017281,-0.021013,-0.01441,0.14419,0.190384,0.032031,0.057074,0.340108,0.008101,0.057749,0.376638,-0.004423,0.127593,0.282783,-0.005528,0.08704,0.454686,-0.026752,0,0,0,0,0,0,0,0,0,0,0,0,1,0,0
1197,'2025/06/17 09:42:02:411',12,0.253506,-0.009313,-0.017281,-0.021013,-0.01441,0.14419,0.190384,0.032031,0.057074,0.340108,0.008101,0.057749,0.376638,-0.004423,0.127593,0.282783,-0.005528,0.08704,0.454686,-0.026752,0,0,0,0,0,0,0,0,0,0,0,0,1,0,0
1198,'2025/06/17 09:42:02:419',12,0.253506,-0.009313,-0.017281,-0.021013,-0.01441,0.14419,0.190384,0.032031,0.057074,0.340108,0.008101,0.057749,0.376638,-0.004423,0.127593,0.282783,-0.005528,0.08704,0.454686,-0.026752,0,0,0,0,0,0,0,0,0,0,0,0,1,0,0
1199,'2025/06/17 09:42:02:425',12,0.253506,-0.009313,-0.017281,-0.021013,-0.01441,0.14419,0.190384,0.032031,0.057074,0.340108,0.008101,0.057749,0.376638,-0.004423,0.127593,0.282783,-0.005528,0.08704,0.454686,-0.026752,0,0,0,0,0,0,0,0,0,0,0,0,1,0,0
1200,'2025/06/17 09:42:02:432',12,0.253506,-0.009313,-0.017281,-0.021013,-0.01441,0.14419,0.190384,0.032031,0.057074,0.340108,0.008101,0.057749,0.376638,-0.004423,0.127593,0.282783,-0.005528,0.08704,0.454686,-0.026752,0,0,0,0,0,0,0,0,0,0,0,0,1,0,0
1201,'2025/06/17 09:42:02:438',12,0.253506,-0.009313,-0.017281,-0.021013,-0.01441,0.14419,0.190384,0.032031,0.057074,0.340108,0.008101,0.057749,0.376638,-0.004423,0.127593,0.282783,-0.005528,0.08704,0.454686,-0.026752,0,0,0,0,0,0,0,0,0,0,0,0,1,0,0
1202,'2025/06/17 09:42:02:445',12,0.253506,-0.009313,-0.017281,-0.021013,-0.01441,0.14419,0.190384,0.032031,0.057074,0.340108,0.008101,0.057749,0.376638,-0.004423,0.127593,0.282783,-0.005528,0.08704,0.454686,-0.026752,0,0,0,0,0,0,0,0,0,0,0,0,1,0,0
1203,'2025/06/17 09:42:02:452',12,0.253506,-0.009313,-0.017281,-0.021013,-0.01441,0.14419,0.190384,0.032031,0.057074,0.340108,0.008101,0.057749,0.376638,-0.004423,0.127593,0.282783,-0.005528,0.08704,0.454686,-0.026752,0,0,0,0,0,0,0,0,0,0,0,0,1,0,0
1204,'2025/06/17 09:42:02:458',12,0.253506,-0.009313,-0.017281,-0.021013,-0.01441,0.14419,0.190384,0.032031,0.057074,0.340108,0.008101,0.057749,0.376638,-0.004423,0.127593,0.282783,-0.005528,0.08704,0.454686,-0.026752,0,0,0,0,0,0,0,0,0,0,0,0,1,0,0
1205,'2025/06/17 09:42:02:465',12,0.253506,-0.009313,-0.017281,-0.021013,-0.01441,0.14419,0.190384,0.032031,0.057074,0.340108,0.008101,0.057749,0.376638,-0.004423,0.127593,0.282783,-0.005528,0.08704,0.454686,-0.026752,0,0,0,0,0,0,0,0,0,0,0,0,1,0,0
1206,'2025/06/17 09:42:02:472',12,0.253506,-0.009313,-0.017281,-0.021013,-0.01441,0.14419,0.190384,0.032031,0.057074,0.340108,0.008101,0.057749,0.376638,-0.004423,0.127593,0.282783,-0.005528,0.08704,0.454686,-0.026752,0,0,0,0,0,0,0,0,0,0,0,0,1,0,0
1207,'2025/06/17 09:42:02:479',12,0.253506,-0.009313,-0.017281,-0.021013,-0.01441,0.14419,0.190384,0.032031,0.057074,0.340108,0.008101,0.057749,0.376638,-0.004423,0.127593,0.282783,-0.005528,0.08704,0.454686,-0.026752,0,0,0,0,0,0,0,0,0,0,0,0,1,0,0
1208,'2025/06/17 09:42:02:487',12,0.253506,-0.009313,-0.017281,-0.021013,-0.01441,0.14419,0.190384,0.032031,0.057074,0.340108,0.008101,0.057749,0.376638,-0.004423,0.127593,0.282783,-0.005528,0.08704,0.454686,-0.026752,0,0,0,0,0,0,0,0,0,0,0,0,1,0,0
1209,'2025/06/17 09:42:02:493',12,0.253506,-0.009313,-0.017281,-0.021013,-0.01441,0.14419,0.190384,0.032031,0.057074,0.340108,0.008101,0.057749,0.376638,-0.004423,0.127593,0.282783,-0.005528,0.08704,0.454686,-0.026752,0,0,0,0,0,0,0,0,0,0,0,0,1,0,0
1210,'2025/06/17 09:42:02:501',12,0.253506,-0.009313,-0.017281,-0.021013,-0.01441,0.14419,0.190384,0.032031,0.057074,0.340108,0.008101,0.057749,0.376638,-0.004423,0.127593,0.282783,-0.005528,0.08704,0.454686,-0.026752,0,0,0,0,0,0,0,0,0,0,0,0,1,0,0
1211,'2025/06/17 09:42:02:507',12,0.253506,-0.009313,-0.017281,-0.021013,-0.01441,0.14419,0.190384,0.032031,0.057074,0.340108,0.008101,0.057749,0.376638,-0.004423,0.127593,0.282783,-0.005528,0.08704,0.454686,-0.026752,0,0,0,0,0,0,0,0,0,0,0,0,1,0,0
1212,'2025/06/17 09:42:02:513',12,0.253506,-0.009313,-0.017281,-0.021013,-0.01441,0.14419,0.190384,0.032031,0.057074,0.340108,0.008101,0.057749,0.376638,-0.004423,0.127593,0.282783,-0.005528,0.08704,0.454686,-0.026752,0,0,0,0,0,0,0,0,0,0,0,0,1,0,0
1213,'2025/06/17 09:42:02:519',12,0.253506,-0.009313,-0.017281,-0.021013,-0.01441,0.14419,0.190384,0.032031,0.057074,0.340108,0.008101,0.057749,0.376638,-0.004423,0.127593,0.282783,-0.005528,0.08704,0.454686,-0.026752,0,0,0,0,0,0,0,0,0,0,0,0,1,0,0
1214,'2025/06/17 09:42:02:524',12,0.253506,-0.009313,-0.017281,-0.021013,-0.01441,0.14419,0.190384,0.032031,0.057074,0.340108,0.008101,0.057749,0.376638,-0.004423,0.127593,0.282783,-0.005528,0.08704,0.454686,-0.026752,0,0,0,0,0,0,0,0,0,0,0,0,1,0,0
1215,'2025/06/17 09:42:02:533',12,0.253506,-0.009313,-0.017281,-0.021013,-0.01441,0.14419,0.190384,0.032031,0.057074,0.340108,0.008101,0.057749,0.376638,-0.004423,0.127593,0.282783,-0.005528,0.08704,0.454686,-0.026752,0,0,0,0,0,0,0,0,0,0,0,0,1,0,0
1216,'2025/06/17 09:42:02:540',12,0.253506,-0.009313,-0.017281,-0.021013,-0.01441,0.14419,0.190384,0.032031,0.057074,0.340108,0.008101,0.057749,0.376638,-0.004423,0.127593,0.282783,-0.005528,0.08704,0.454686,-0.026752,0,0,0,0,0,0,0,0,0,0,0,0,1,0,0
1217,'2025/06/17 09:42:02:546',12,0.253506,-0.009313,-0.017281,-0.021013,-0.01441,0.14419,0.190384,0.032031,0.057074,0.340108,0.008101,0.057749,0.376638,-0.004423,0.127593,0.282783,-0.005528,0.08704,0.454686,-0.026752,0,0,0,0,0,0,0,0,0,0,0,0,1,0,0
1218,'2025/06/17 09:42:02:553',12,0.253506,-0.009313,-0.017281,-0.021013,-0.01441,0.14419,0.190384,0.032031,0.057074,0.340108,0.008101,0.057749,0.376638,-0.004423,0.127593,0.282783,-0.005528,0.08704,0.454686,-0.026752,0,0,0,0,0,0,0,0,0,0,0,0,1,0,0
1219,'2025/06/17 09:42:02:559',12,0.253506,-0.009313,-0.017281,-0.021013,-0.01441,0.14419,0.190384,0.032031,0.057074,0.340108,0.008101,0.057749,0.376638,-0.004423,0.127593,0.282783,-0.005528,0.08704,0.454686,-0.026752,0,0,0,0,0,0,0,0,0,0,0,0,1,0,0
1220,'2025/06/17 09:42:02:565',12,0.253506,-0.009313,-0.017281,-0.021013,-0.01441,0.14419,0.190384,0.032031,0.057074,0.340108,0.008101,0.057749,0.376638,-0.004423,0.127593,0.282783,-0.005528,0.08704,0.454686,-0.026752,0,0,0,0,0,0,0,0,0,0,0,0,1,0,0
1221,'2025/06/17 09:42:02:572',12,0.253506,-0.009313,-0.017281,-0.021013,-0.01441,0.14419,0.190384,0.032031,0.057074,0.340108,0.008101,0.057749,0.376638,-0.004423,0.127593,0.282783,-0.005528,0.08704,0.454686,-0.026752,0,0,0,0,0,0,0,0,0,0,0,0,1,0,0
1222,'2025/06/17 09:42:02:579',12,0.253506,-0.009313,-0.017281,-0.021013,-0.01441,0.14419,0.190384,0.032031,0.057074,0.340108,0.008101,0.057749,0.376638,-0.004423,0.127593,0.282783,-0.005528,0.08704,0.454686,-0.026752,0,0,0,0,0,0,0,0,0,0,0,0,1,0,0
1223,'2025/06/17 09:42:02:585',12,0.253506,-0.009313,-0.017281,-0.021013,-0.01441,0.14419,0.190384,0.032031,0.057074,0.340108,0.008101,0.057749,0.376638,-0.004423,0.127593,0.282783,-0.005528,0.08704,0.454686,-0.026752,0,0,0,0,0,0,0,0,0,0,0,0,1,0,0
1224,'2025/06/17 09:42:02:592',12,0.253506,-0.009313,-0.017281,-0.021013,-0.01441,0.14419,0.190384,0.032031,0.057074,0.340108,0.008101,0.057749,0.376638,-0.004423,0.127593,0.282783,-0.005528,0.08704,0.454686,-0.026752,0,0,0,0,0,0,0,0,0,0,0,0,1,0,0
1225,'2025/06/17 09:42:02:598',12,0.253506,-0.009313,-0.017281,-0.021013,-0.01441,0.14419,0.190384,0.032031,0.057074,0.340108,0.008101,0.057749,0.376638,-0.004423,0.127593,0.282783,-0.005528,0.08704,0.454686,-0.026752,0,0,0,0,0,0,0,0,0,0,0,0,1,0,0
1226,'2025/06/17 09:42:02:605',12,0.253506,-0.009313,-0.017281,-0.021013,-0.01441,0.14419,0.190384,0.032031,0.057074,0.340108,0.008101,0.057749,0.376638,-0.004423,0.127593,0.282783,-0.005528,0.08704,0.454686,-0.026752,0,0,0,0,0,0,0,0,0,0,0,0,1,0,0
1227,'2025/06/17 09:42:02:612',12,0.253506,-0.009313,-0.017281,-0.021013,-0.01441,0.14419,0.190384,0.032031,0.057074,0.340108,0.008101,0.057749,0.376638,-0.004423,0.127593,0.282783,-0.005528,0.08704,0.454686,-0.026752,0,0,0,0,0,0,0,0,0,0,0,0,1,0,0
1228,'2025/06/17 09:42:02:617',12,0.253506,-0.009313,-0.017281,-0.021013,-0.01441,0.14419,0.190384,0.032031,0.057074,0.340108,0.008101,0.057749,0.376638,-0.004423,0.127593,0.282783,-0.005528,0.08704,0.454686,-0.026752,0,0,0,0,0,0,0,0,0,0,0,0,1,0,0
1229,'2025/06/17 09:42:02:624',12,0.253506,-0.009313,-0.017281,-0.021013,-0.01441,0.14419,0.190384,0.032031,0.057074,0.340108,0.008101,0.057749,0.376638,-0.004423,0.127593,0.282783,-0.005528,0.08704,0.454686,-0.026752,0,0,0,0,0,0,0,0,0,0,0,0,1,0,0
1230,'2025/06/17 09:42:02:631',12,0.253506,-0.009313,-0.017281,-0.021013,-0.01441,0.14419,0.190384,0.032031,0.057074,0.340108,0.008101,0.057749,0.376638,-0.004423,0.127593,0.282783,-0.005528,0.08704,0.454686,-0.026752,0,0,0,0,0,0,0,0,0,0,0,0,1,0,0
1231,'2025/06/17 09:42:02:636',12,0.253506,-0.009313,-0.017281,-0.021013,-0.01441,0.14419,0.190384,0.032031,0.057074,0.340108,0.008101,0.057749,0.376638,-0.004423,0.127593,0.282783,-0.005528,0.08704,0.454686,-0.026752,0,0,0,0,0,0,0,0,0,0,0,0,1,0,0
1232,'2025/06/17 09:42:02:643',12,0.253506,-0.009313,-0.017281,-0.021013,-0.01441,0.14419,0.190384,0.032031,0.057074,0.340108,0.008101,0.057749,0.376638,-0.004423,0.127593,0.282783,-0.005528,0.08704,0.454686,-0.026752,0,0,0,0,0,0,0,0,0,0,0,0,1,0,0
1233,'2025/06/17 09:42:02:651',12,0.253506,-0.009313,-0.017281,-0.021013,-0.01441,0.14419,0.190384,0.032031,0.057074,0.340108,0.008101,0.057749,0.376638,-0.004423,0.127593,0.282783,-0.005528,0.08704,0.454686,-0.026752,0,0,0,0,0,0,0,0,0,0,0,0,1,0,0
1234,'2025/06/17 09:42:02:658',12,0.253506,-0.009313,-0.017281,-0.021013,-0.01441,0.14419,0.190384,0.032031,0.057074,0.340108,0.008101,0.057749,0.376638,-0.004423,0.127593,0.282783,-0.005528,0.08704,0.454686,-0.026752,0,0,0,0,0,0,0,0,0,0,0,0,1,0,0
1235,'2025/06/17 09:42:02:664',12,0.253506,-0.009313,-0.017281,-0.021013,-0.01441,0.14419,0.190384,0.032031,0.057074,0.340108,0.008101,0.057749,0.376638,-0.004423,0.127593,0.282783,-0.005528,0.08704,0.454686,-0.026752,0,0,0,0,0,0,0,0,0,0,0,0,1,0,0
1236,'2025/06/17 09:42:02:671',12,0.253506,-0.009313,-0.017281,-0.021013,-0.01441,0.14419,0.190384,0.032031,0.057074,0.340108,0.008101,0.057749,0.376638,-0.004423,0.127593,0.282783,-0.005528,0.08704,0.454686,-0.026752,0,0,0,0,0,0,0,0,0,0,0,0,1,0,0
1237,'2025/06/17 09:42:02:678',12,0.253506,-0.009313,-0.017281,-0.021013,-0.01441,0.14419,0.190384,0.032031,0.057074,0.340108,0.008101,0.057749,0.376638,-0.004423,0.127593,0.282783,-0.005528,0.08704,0.454686,-0.026752,0,0,0,0,0,0,0,0,0,0,0,0,1,0,0
1238,'2025/06/17 09:42:02:685',12,0.253506,-0.009313,-0.017281,-0.021013,-0.01441,0.14419,0.190384,0.032031,0.057074,0.340108,0.008101,0.057749,0.376638,-0.004423,0.127593,0.282783,-0.005528,0.08704,0.454686,-0.026752,0,0,0,0,0,0,0,0,0,0,0,0,1,0,0
1239,'2025/06/17 09:42:02:691',12,0.253506,-0.009313,-0.017281,-0.021013,-0.01441,0.14419,0.190384,0.032031,0.057074,0.340108,0.008101,0.057749,0.376638,-0.004423,0.127593,0.282783,-0.005528,0.08704,0.454686,-0.026752,0,0,0,0,0,0,0,0,0,0,0,0,1,0,0
1240,'2025/06/17 09:42:02:697',12,0.253506,-0.009313,-0.017281,-0.021013,-0.01441,0.14419,0.190384,0.032031,0.057074,0.340108,0.008101,0.057749,0.376638,-0.004423,0.127593,0.282783,-0.005528,0.08704,0.454686,-0.026752,0,0,0,0,0,0,0,0,0,0,0,0,1,0,0
1241,'2025/06/17 09:42:02:705',12,0.253506,-0.009313,-0.017281,-0.021013,-0.01441,0.14419,0.190384,0.032031,0.057074,0.340108,0.008101,0.057749,0.376638,-0.004423,0.127593,0.282783,-0.005528,0.08704,0.454686,-0.026752,0,0,0,0,0,0,0,0,0,0,0,0,1,0,0
1242,'2025/06/17 09:42:02:712',12,0.253506,-0.009313,-0.017281,-0.021013,-0.01441,0.14419,0.190384,0.032031,0.057074,0.340108,0.008101,0.057749,0.376638,-0.004423,0.127593,0.282783,-0.005528,0.08704,0.454686,-0.026752,0,0,0,0,0,0,0,0,0,0,0,0,1,0,0
1243,'2025/06/17 09:42:02:719',12,0.253506,-0.009313,-0.017281,-0.021013,-0.01441,0.14419,0.190384,0.032031,0.057074,0.340108,0.008101,0.057749,0.376638,-0.004423,0.127593,0.282783,-0.005528,0.08704,0.454686,-0.026752,0,0,0,0,0,0,0,0,0,0,0,0,1,0,0
1244,'2025/06/17 09:42:02:727',12,0.253506,-0.009313,-0.017281,-0.021013,-0.01441,0.14419,0.190384,0.032031,0.057074,0.340108,0.008101,0.057749,0.376638,-0.004423,0.127593,0.282783,-0.005528,0.08704,0.454686,-0.026752,0,0,0,0,0,0,0,0,0,0,0,0,1,0,0
1245,'2025/06/17 09:42:02:734',12,0.253506,-0.009313,-0.017281,-0.021013,-0.01441,0.14419,0.190384,0.032031,0.057074,0.340108,0.008101,0.057749,0.376638,-0.004423,0.127593,0.282783,-0.005528,0.08704,0.454686,-0.026752,0,0,0,0,0,0,0,0,0,0,0,0,1,0,0
1246,'2025/06/17 09:42:02:743',12,0.253506,-0.009313,-0.017281,-0.021013,-0.01441,0.14419,0.190384,0.032031,0.057074,0.340108,0.008101,0.057749,0.376638,-0.004423,0.127593,0.282783,-0.005528,0.08704,0.454686,-0.026752,0,0,0,0,0,0,0,0,0,0,0,0,1,0,0
1247,'2025/06/17 09:42:02:748',12,0.253506,-0.009313,-0.017281,-0.021013,-0.01441,0.14419,0.190384,0.032031,0.057074,0.340108,0.008101,0.057749,0.376638,-0.004423,0.127593,0.282783,-0.005528,0.08704,0.454686,-0.026752,0,0,0,0,0,0,0,0,0,0,0,0,1,0,0
1248,'2025/06/17 09:42:02:754',12,0.253506,-0.009313,-0.017281,-0.021013,-0.01441,0.14419,0.190384,0.032031,0.057074,0.340108,0.008101,0.057749,0.376638,-0.004423,0.127593,0.282783,-0.005528,0.08704,0.454686,-0.026752,0,0,0,0,0,0,0,0,0,0,0,0,1,0,0
1249,'2025/06/17 09:42:02:760',12,0.253506,-0.009313,-0.017281,-0.021013,-0.01441,0.14419,0.190384,0.032031,0.057074,0.340108,0.008101,0.057749,0.376638,-0.004423,0.127593,0.282783,-0.005528,0.08704,0.454686,-0.026752,0,0,0,0,0,0,0,0,0,0,0,0,1,0,0
1250,'2025/06/17 09:42:02:767',12,0.253506,-0.009313,-0.017281,-0.021013,-0.01441,0.14419,0.190384,0.032031,0.057074,0.340108,0.008101,0.057749,0.376638,-0.004423,0.127593,0.282783,-0.005528,0.08704,0.454686,-0.026752,0,0,0,0,0,0,0,0,0,0,0,0,1,0,0
1251,'2025/06/17 09:42:02:773',12,0.253506,-0.009313,-0.017281,-0.021013,-0.01441,0.14419,0.190384,0.032031,0.057074,0.340108,0.008101,0.057749,0.376638,-0.004423,0.127593,0.282783,-0.005528,0.08704,0.454686,-0.026752,0,0,0,0,0,0,0,0,0,0,0,0,1,0,0
1252,'2025/06/17 09:42:02:781',12,0.253506,-0.009313,-0.017281,-0.021013,-0.01441,0.14419,0.190384,0.032031,0.057074,0.340108,0.008101,0.057749,0.376638,-0.004423,0.127593,0.282783,-0.005528,0.08704,0.454686,-0.026752,0,0,0,0,0,0,0,0,0,0,0,0,1,0,0
1253,'2025/06/17 09:42:02:788',12,0.253506,-0.009313,-0.017281,-0.021013,-0.01441,0.14419,0.190384,0.032031,0.057074,0.340108,0.008101,0.057749,0.376638,-0.004423,0.127593,0.282783,-0.005528,0.08704,0.454686,-0.026752,0,0,0,0,0,0,0,0,0,0,0,0,1,0,0
1254,'2025/06/17 09:42:02:793',12,0.253506,-0.009313,-0.017281,-0.021013,-0.01441,0.14419,0.190384,0.032031,0.057074,0.340108,0.008101,0.057749,0.376638,-0.004423,0.127593,0.282783,-0.005528,0.08704,0.454686,-0.026752,0,0,0,0,0,0,0,0,0,0,0,0,1,0,0
1255,'2025/06/17 09:42:02:800',12,0.253506,-0.009313,-0.017281,-0.021013,-0.01441,0.14419,0.190384,0.032031,0.057074,0.340108,0.008101,0.057749,0.376638,-0.004423,0.127593,0.282783,-0.005528,0.08704,0.454686,-0.026752,0,0,0,0,0,0,0,0,0,0,0,0,1,0,0
1256,'2025/06/17 09:42:02:807',12,0.253506,-0.009313,-0.017281,-0.021013,-0.01441,0.14419,0.190384,0.032031,0.057074,0.340108,0.008101,0.057749,0.376638,-0.004423,0.127593,0.282783,-0.005528,0.08704,0.454686,-0.026752,0,0,0,0,0,0,0,0,0,0,0,0,1,0,0
1257,'2025/06/17 09:42:02:813',12,0.253506,-0.009313,-0.017281,-0.021013,-0.01441,0.14419,0.190384,0.032031,0.057074,0.340108,0.008101,0.057749,0.376638,-0.004423,0.127593,0.282783,-0.005528,0.08704,0.454686,-0.026752,0,0,0,0,0,0,0,0,0,0,0,0,1,0,0
1258,'2025/06/17 09:42:02:819',12,0.253506,-0.009313,-0.017281,-0.021013,-0.01441,0.14419,0.190384,0.032031,0.057074,0.340108,0.008101,0.057749,0.376638,-0.004423,0.127593,0.282783,-0.005528,0.08704,0.454686,-0.026752,0,0,0,0,0,0,0,0,0,0,0,0,1,0,0
1259,'2025/06/17 09:42:02:825',12,0.253506,-0.009313,-0.017281,-0.021013,-0.01441,0.14419,0.190384,0.032031,0.057074,0.340108,0.008101,0.057749,0.376638,-0.004423,0.127593,0.282783,-0.005528,0.08704,0.454686,-0.026752,0,0,0,0,0,0,0,0,0,0,0,0,1,0,0
1260,'2025/06/17 09:42:02:831',12,0.253506,-0.009313,-0.017281,-0.021013,-0.01441,0.14419,0.190384,0.032031,0.057074,0.340108,0.008101,0.057749,0.376638,-0.004423,0.127593,0.282783,-0.005528,0.08704,0.454686,-0.026752,0,0,0,0,0,0,0,0,0,0,0,0,1,0,0
1261,'2025/06/17 09:44:25:603',13,-0.112363,-0.034008,-0.014086,-0.003351,0.007315,0.184591,0,0.091127,0.063185,0.622306,0.076693,-0.04309,0.727084,-0.006543,-0.036043,0.711328,-0.054759,0.183371,0.468507,-0.072782,0,0,0,0,0,0,0,0,0,0,0,0,0,1,0
1262,'2025/06/17 09:44:25:615',13,-0.112363,-0.034008,-0.014086,-0.003351,0.007315,0.184591,0,0.091127,0.063185,0.622306,0.076693,-0.04309,0.727084,-0.006543,-0.036043,0.711328,-0.054759,0.183371,0.468507,-0.072782,0,0,0,0,0,0,0,0,0,0,0,0,0,1,0
1263,'2025/06/17 09:44:25:626',13,-0.112363,-0.034008,-0.014086,-0.003351,0.007315,0.184591,0,0.091127,0.063185,0.622306,0.076693,-0.04309,0.727084,-0.006543,-0.036043,0.711328,-0.054759,0.183371,0.468507,-0.072782,0,0,0,0,0,0,0,0,0,0,0,0,0,1,0
1264,'2025/06/17 09:44:25:637',13,-0.112363,-0.034008,-0.014086,-0.003351,0.007315,0.184591,0,0.091127,0.063185,0.622306,0.076693,-0.04309,0.727084,-0.006543,-0.036043,0.711328,-0.054759,0.183371,0.468507,-0.072782,0,0,0,0,0,0,0,0,0,0,0,0,0,1,0
1265,'2025/06/17 09:44:25:649',13,-0.112363,-0.034008,-0.014086,-0.003351,0.007315,0.184591,0,0.091127,0.063185,0.622306,0.076693,-0.04309,0.727084,-0.006543,-0.036043,0.711328,-0.054759,0.183371,0.468507,-0.072782,0,0,0,0,0,0,0,0,0,0,0,0,0,1,0
1266,'2025/06/17 09:44:25:660',13,-0.112363,-0.034008,-0.014086,-0.003351,0.007315,0.184591,0,0.091127,0.063185,0.622306,0.076693,-0.04309,0.727084,-0.006543,-0.036043,0.711328,-0.054759,0.183371,0.468507,-0.072782,0,0,0,0,0,0,0,0,0,0,0,0,0,1,0
1267,'2025/06/17 09:44:25:672',13,-0.112363,-0.034008,-0.014086,-0.003351,0.007315,0.184591,0,0.091127,0.063185,0.622306,0.076693,-0.04309,0.727084,-0.006543,-0.036043,0.711328,-0.054759,0.183371,0.468507,-0.072782,0,0,0,0,0,0,0,0,0,0,0,0,0,1,0
1268,'2025/06/17 09:44:25:685',13,-0.112363,-0.034008,-0.014086,-0.003351,0.007315,0.184591,0,0.091127,0.063185,0.622306,0.076693,-0.04309,0.727084,-0.006543,-0.036043,0.711328,-0.054759,0.183371,0.468507,-0.072782,0,0,0,0,0,0,0,0,0,0,0,0,0,1,0
1269,'2025/06/17 09:44:25:696',13,-0.112363,-0.034008,-0.014086,-0.003351,0.007315,0.184591,0,0.091127,0.063185,0.622306,0.076693,-0.04309,0.727084,-0.006543,-0.036043,0.711328,-0.054759,0.183371,0.468507,-0.072782,0,0,0,0,0,0,0,0,0,0,0,0,0,1,0
1270,'2025/06/17 09:44:25:707',13,-0.112363,-0.034008,-0.014086,-0.003351,0.007315,0.184591,0,0.091127,0.063185,0.622306,0.076693,-0.04309,0.727084,-0.006543,-0.036043,0.711328,-0.054759,0.183371,0.468507,-0.072782,0,0,0,0,0,0,0,0,0,0,0,0,0,1,0
1271,'2025/06/17 09:44:25:720',13,-0.112363,-0.034008,-0.014086,-0.003351,0.007315,0.184591,0,0.091127,0.063185,0.622306,0.076693,-0.04309,0.727084,-0.006543,-0.036043,0.711328,-0.054759,0.183371,0.468507,-0.072782,0,0,0,0,0,0,0,0,0,0,0,0,0,1,0
1272,'2025/06/17 09:44:25:732',13,-0.112363,-0.034008,-0.014086,-0.003351,0.007315,0.184591,0,0.091127,0.063185,0.622306,0.076693,-0.04309,0.727084,-0.006543,-0.036043,0.711328,-0.054759,0.183371,0.468507,-0.072782,0,0,0,0,0,0,0,0,0,0,0,0,0,1,0
1273,'2025/06/17 09:44:25:743',13,-0.112363,-0.034008,-0.014086,-0.003351,0.007315,0.184591,0,0.091127,0.063185,0.622306,0.076693,-0.04309,0.727084,-0.006543,-0.036043,0.711328,-0.054759,0.183371,0.468507,-0.072782,0,0,0,0,0,0,0,0,0,0,0,0,0,1,0
1274,'2025/06/17 09:44:25:755',13,-0.112363,-0.034008,-0.014086,-0.003351,0.007315,0.184591,0,0.091127,0.063185,0.622306,0.076693,-0.04309,0.727084,-0.006543,-0.036043,0.711328,-0.054759,0.183371,0.468507,-0.072782,0,0,0,0,0,0,0,0,0,0,0,0,0,1,0
1275,'2025/06/17 09:44:25:768',13,-0.112363,-0.034008,-0.014086,-0.003351,0.007315,0.184591,0,0.091127,0.063185,0.622306,0.076693,-0.04309,0.727084,-0.006543,-0.036043,0.711328,-0.054759,0.183371,0.468507,-0.072782,0,0,0,0,0,0,0,0,0,0,0,0,0,1,0
1276,'2025/06/17 09:44:25:780',13,-0.112363,-0.034008,-0.014086,-0.003351,0.007315,0.184591,0,0.091127,0.063185,0.622306,0.076693,-0.04309,0.727084,-0.006543,-0.036043,0.711328,-0.054759,0.183371,0.468507,-0.072782,0,0,0,0,0,0,0,0,0,0,0,0,0,1,0
1277,'2025/06/17 09:44:25:791',13,-0.112363,-0.034008,-0.014086,-0.003351,0.007315,0.184591,0,0.091127,0.063185,0.622306,0.076693,-0.04309,0.727084,-0.006543,-0.036043,0.711328,-0.054759,0.183371,0.468507,-0.072782,0,0,0,0,0,0,0,0,0,0,0,0,0,1,0
1278,'2025/06/17 09:44:25:802',13,-0.112363,-0.034008,-0.014086,-0.003351,0.007315,0.184591,0,0.091127,0.063185,0.622306,0.076693,-0.04309,0.727084,-0.006543,-0.036043,0.711328,-0.054759,0.183371,0.468507,-0.072782,0,0,0,0,0,0,0,0,0,0,0,0,0,1,0
1279,'2025/06/17 09:44:25:812',13,-0.112363,-0.034008,-0.014086,-0.003351,0.007315,0.184591,0,0.091127,0.063185,0.622306,0.076693,-0.04309,0.727084,-0.006543,-0.036043,0.711328,-0.054759,0.183371,0.468507,-0.072782,0,0,0,0,0,0,0,0,0,0,0,0,0,1,0
1280,'2025/06/17 09:44:25:865',13,-0.112363,-0.034008,-0.014086,-0.003351,0.007315,0.184591,0,0.091127,0.063185,0.622306,0.076693,-0.04309,0.727084,-0.006543,-0.036043,0.711328,-0.054759,0.183371,0.468507,-0.072782,0,0,0,0,0,0,0,0,0,0,0,0,0,1,0
1281,'2025/06/17 09:44:25:875',13,-0.112363,-0.034008,-0.014086,-0.003351,0.007315,0.184591,0,0.091127,0.063185,0.622306,0.076693,-0.04309,0.727084,-0.006543,-0.036043,0.711328,-0.054759,0.183371,0.468507,-0.072782,0,0,0,0,0,0,0,0,0,0,0,0,0,1,0
1282,'2025/06/17 09:44:25:883',13,-0.112363,-0.034008,-0.014086,-0.003351,0.007315,0.184591,0,0.091127,0.063185,0.622306,0.076693,-0.04309,0.727084,-0.006543,-0.036043,0.711328,-0.054759,0.183371,0.468507,-0.072782,0,0,0,0,0,0,0,0,0,0,0,0,0,1,0
1283,'2025/06/17 09:44:25:892',13,-0.112363,-0.034008,-0.014086,-0.003351,0.007315,0.184591,0,0.091127,0.063185,0.622306,0.076693,-0.04309,0.727084,-0.006543,-0.036043,0.711328,-0.054759,0.183371,0.468507,-0.072782,0,0,0,0,0,0,0,0,0,0,0,0,0,1,0
1284,'2025/06/17 09:44:25:901',13,-0.112363,-0.034008,-0.014086,-0.003351,0.007315,0.184591,0,0.091127,0.063185,0.622306,0.076693,-0.04309,0.727084,-0.006543,-0.036043,0.711328,-0.054759,0.183371,0.468507,-0.072782,0,0,0,0,0,0,0,0,0,0,0,0,0,1,0
1285,'2025/06/17 09:44:25:910',13,-0.112363,-0.034008,-0.014086,-0.003351,0.007315,0.184591,0,0.091127,0.063185,0.622306,0.076693,-0.04309,0.727084,-0.006543,-0.036043,0.711328,-0.054759,0.183371,0.468507,-0.072782,0,0,0,0,0,0,0,0,0,0,0,0,0,1,0
1286,'2025/06/17 09:44:25:918',13,-0.112363,-0.034008,-0.014086,-0.003351,0.007315,0.184591,0,0.091127,0.063185,0.622306,0.076693,-0.04309,0.727084,-0.006543,-0.036043,0.711328,-0.054759,0.183371,0.468507,-0.072782,0,0,0,0,0,0,0,0,0,0,0,0,0,1,0
1287,'2025/06/17 09:44:25:928',13,-0.112363,-0.034008,-0.014086,-0.003351,0.007315,0.184591,0,0.091127,0.063185,0.622306,0.076693,-0.04309,0.727084,-0.006543,-0.036043,0.711328,-0.054759,0.183371,0.468507,-0.072782,0,0,0,0,0,0,0,0,0,0,0,0,0,1,0
1288,'2025/06/17 09:44:25:936',13,-0.112363,-0.034008,-0.014086,-0.003351,0.007315,0.184591,0,0.091127,0.063185,0.622306,0.076693,-0.04309,0.727084,-0.006543,-0.036043,0.711328,-0.054759,0.183371,0.468507,-0.072782,0,0,0,0,0,0,0,0,0,0,0,0,0,1,0
1289,'2025/06/17 09:44:25:946',13,-0.112363,-0.034008,-0.014086,-0.003351,0.007315,0.184591,0,0.091127,0.063185,0.622306,0.076693,-0.04309,0.727084,-0.006543,-0.036043,0.711328,-0.054759,0.183371,0.468507,-0.072782,0,0,0,0,0,0,0,0,0,0,0,0,0,1,0
1290,'2025/06/17 09:44:25:954',13,-0.112363,-0.034008,-0.014086,-0.003351,0.007315,0.184591,0,0.091127,0.063185,0.622306,0.076693,-0.04309,0.727084,-0.006543,-0.036043,0.711328,-0.054759,0.183371,0.468507,-0.072782,0,0,0,0,0,0,0,0,0,0,0,0,0,1,0
1291,'2025/06/17 09:44:25:963',13,-0.112363,-0.034008,-0.014086,-0.003351,0.007315,0.184591,0,0.091127,0.063185,0.622306,0.076693,-0.04309,0.727084,-0.006543,-0.036043,0.711328,-0.054759,0.183371,0.468507,-0.072782,0,0,0,0,0,0,0,0,0,0,0,0,0,1,0
1292,'2025/06/17 09:44:25:972',13,-0.112363,-0.034008,-0.014086,-0.003351,0.007315,0.184591,0,0.091127,0.063185,0.622306,0.076693,-0.04309,0.727084,-0.006543,-0.036043,0.711328,-0.054759,0.183371,0.468507,-0.072782,0,0,0,0,0,0,0,0,0,0,0,0,0,1,0
1293,'2025/06/17 09:44:25:980',13,-0.112363,-0.034008,-0.014086,-0.003351,0.007315,0.184591,0,0.091127,0.063185,0.622306,0.076693,-0.04309,0.727084,-0.006543,-0.036043,0.711328,-0.054759,0.183371,0.468507,-0.072782,0,0,0,0,0,0,0,0,0,0,0,0,0,1,0
1294,'2025/06/17 09:44:25:988',13,-0.112363,-0.034008,-0.014086,-0.003351,0.007315,0.184591,0,0.091127,0.063185,0.622306,0.076693,-0.04309,0.727084,-0.006543,-0.036043,0.711328,-0.054759,0.183371,0.468507,-0.072782,0,0,0,0,0,0,0,0,0,0,0,0,0,1,0
1295,'2025/06/17 09:44:25:996',13,-0.112363,-0.034008,-0.014086,-0.003351,0.007315,0.184591,0,0.091127,0.063185,0.622306,0.076693,-0.04309,0.727084,-0.006543,-0.036043,0.711328,-0.054759,0.183371,0.468507,-0.072782,0,0,0,0,0,0,0,0,0,0,0,0,0,1,0
1296,'2025/06/17 09:44:26:005',13,-0.112363,-0.034008,-0.014086,-0.003351,0.007315,0.184591,0,0.091127,0.063185,0.622306,0.076693,-0.04309,0.727084,-0.006543,-0.036043,0.711328,-0.054759,0.183371,0.468507,-0.072782,0,0,0,0,0,0,0,0,0,0,0,0,0,1,0
1297,'2025/06/17 09:44:26:013',13,-0.112363,-0.034008,-0.014086,-0.003351,0.007315,0.184591,0,0.091127,0.063185,0.622306,0.076693,-0.04309,0.727084,-0.006543,-0.036043,0.711328,-0.054759,0.183371,0.468507,-0.072782,0,0,0,0,0,0,0,0,0,0,0,0,0,1,0
1298,'2025/06/17 09:44:26:021',13,-0.112363,-0.034008,-0.014086,-0.003351,0.007315,0.184591,0,0.091127,0.063185,0.622306,0.076693,-0.04309,0.727084,-0.006543,-0.036043,0.711328,-0.054759,0.183371,0.468507,-0.072782,0,0,0,0,0,0,0,0,0,0,0,0,0,1,0
1299,'2025/06/17 09:44:26:029',13,-0.112363,-0.034008,-0.014086,-0.003351,0.007315,0.184591,0,0.091127,0.063185,0.622306,0.076693,-0.04309,0.727084,-0.006543,-0.036043,0.711328,-0.054759,0.183371,0.468507,-0.072782,0,0,0,0,0,0,0,0,0,0,0,0,0,1,0
1300,'2025/06/17 09:44:26:038',13,-0.112363,-0.034008,-0.014086,-0.003351,0.007315,0.184591,0,0.091127,0.063185,0.622306,0.076693,-0.04309,0.727084,-0.006543,-0.036043,0.711328,-0.054759,0.183371,0.468507,-0.072782,0,0,0,0,0,0,0,0,0,0,0,0,0,1,0
1301,'2025/06/17 09:44:26:047',13,-0.112363,-0.034008,-0.014086,-0.003351,0.007315,0.184591,0,0.091127,0.063185,0.622306,0.076693,-0.04309,0.727084,-0.006543,-0.036043,0.711328,-0.054759,0.183371,0.468507,-0.072782,0,0,0,0,0,0,0,0,0,0,0,0,0,1,0
1302,'2025/06/17 09:44:26:055',13,-0.112363,-0.034008,-0.014086,-0.003351,0.007315,0.184591,0,0.091127,0.063185,0.622306,0.076693,-0.04309,0.727084,-0.006543,-0.036043,0.711328,-0.054759,0.183371,0.468507,-0.072782,0,0,0,0,0,0,0,0,0,0,0,0,0,1,0
1303,'2025/06/17 09:44:26:063',13,-0.112363,-0.034008,-0.014086,-0.003351,0.007315,0.184591,0,0.091127,0.063185,0.622306,0.076693,-0.04309,0.727084,-0.006543,-0.036043,0.711328,-0.054759,0.183371,0.468507,-0.072782,0,0,0,0,0,0,0,0,0,0,0,0,0,1,0
1304,'2025/06/17 09:44:26:069',13,-0.112363,-0.034008,-0.014086,-0.003351,0.007315,0.184591,0,0.091127,0.063185,0.622306,0.076693,-0.04309,0.727084,-0.006543,-0.036043,0.711328,-0.054759,0.183371,0.468507,-0.072782,0,0,0,0,0,0,0,0,0,0,0,0,0,1,0
1305,'2025/06/17 09:44:26:078',13,-0.112363,-0.034008,-0.014086,-0.003351,0.007315,0.184591,0,0.091127,0.063185,0.622306,0.076693,-0.04309,0.727084,-0.006543,-0.036043,0.711328,-0.054759,0.183371,0.468507,-0.072782,0,0,0,0,0,0,0,0,0,0,0,0,0,1,0
1306,'2025/06/17 09:44:26:085',13,-0.112363,-0.034008,-0.014086,-0.003351,0.007315,0.184591,0,0.091127,0.063185,0.622306,0.076693,-0.04309,0.727084,-0.006543,-0.036043,0.711328,-0.054759,0.183371,0.468507,-0.072782,0,0,0,0,0,0,0,0,0,0,0,0,0,1,0
1307,'2025/06/17 09:44:26:092',13,-0.112363,-0.034008,-0.014086,-0.003351,0.007315,0.184591,0,0.091127,0.063185,0.622306,0.076693,-0.04309,0.727084,-0.006543,-0.036043,0.711328,-0.054759,0.183371,0.468507,-0.072782,0,0,0,0,0,0,0,0,0,0,0,0,0,1,0
1308,'2025/06/17 09:44:26:098',13,-0.112363,-0.034008,-0.014086,-0.003351,0.007315,0.184591,0,0.091127,0.063185,0.622306,0.076693,-0.04309,0.727084,-0.006543,-0.036043,0.711328,-0.054759,0.183371,0.468507,-0.072782,0,0,0,0,0,0,0,0,0,0,0,0,0,1,0
1309,'2025/06/17 09:44:26:106',13,-0.112363,-0.034008,-0.014086,-0.003351,0.007315,0.184591,0,0.091127,0.063185,0.622306,0.076693,-0.04309,0.727084,-0.006543,-0.036043,0.711328,-0.054759,0.183371,0.468507,-0.072782,0,0,0,0,0,0,0,0,0,0,0,0,0,1,0
1310,'2025/06/17 09:44:26:113',13,-0.112363,-0.034008,-0.014086,-0.003351,0.007315,0.184591,0,0.091127,0.063185,0.622306,0.076693,-0.04309,0.727084,-0.006543,-0.036043,0.711328,-0.054759,0.183371,0.468507,-0.072782,0,0,0,0,0,0,0,0,0,0,0,0,0,1,0
1311,'2025/06/17 09:44:26:121',13,-0.112363,-0.034008,-0.014086,-0.003351,0.007315,0.184591,0,0.091127,0.063185,0.622306,0.076693,-0.04309,0.727084,-0.006543,-0.036043,0.711328,-0.054759,0.183371,0.468507,-0.072782,0,0,0,0,0,0,0,0,0,0,0,0,0,1,0
1312,'2025/06/17 09:44:26:127',13,-0.112363,-0.034008,-0.014086,-0.003351,0.007315,0.184591,0,0.091127,0.063185,0.622306,0.076693,-0.04309,0.727084,-0.006543,-0.036043,0.711328,-0.054759,0.183371,0.468507,-0.072782,0,0,0,0,0,0,0,0,0,0,0,0,0,1,0
1313,'2025/06/17 09:44:26:136',13,-0.112363,-0.034008,-0.014086,-0.003351,0.007315,0.184591,0,0.091127,0.063185,0.622306,0.076693,-0.04309,0.727084,-0.006543,-0.036043,0.711328,-0.054759,0.183371,0.468507,-0.072782,0,0,0,0,0,0,0,0,0,0,0,0,0,1,0
1314,'2025/06/17 09:44:26:145',13,-0.112363,-0.034008,-0.014086,-0.003351,0.007315,0.184591,0,0.091127,0.063185,0.622306,0.076693,-0.04309,0.727084,-0.006543,-0.036043,0.711328,-0.054759,0.183371,0.468507,-0.072782,0,0,0,0,0,0,0,0,0,0,0,0,0,1,0
1315,'2025/06/17 09:44:26:154',13,-0.112363,-0.034008,-0.014086,-0.003351,0.007315,0.184591,0,0.091127,0.063185,0.622306,0.076693,-0.04309,0.727084,-0.006543,-0.036043,0.711328,-0.054759,0.183371,0.468507,-0.072782,0,0,0,0,0,0,0,0,0,0,0,0,0,1,0
1316,'2025/06/17 09:44:26:161',13,-0.112363,-0.034008,-0.014086,-0.003351,0.007315,0.184591,0,0.091127,0.063185,0.622306,0.076693,-0.04309,0.727084,-0.006543,-0.036043,0.711328,-0.054759,0.183371,0.468507,-0.072782,0,0,0,0,0,0,0,0,0,0,0,0,0,1,0
1317,'2025/06/17 09:44:26:167',13,-0.112363,-0.034008,-0.014086,-0.003351,0.007315,0.184591,0,0.091127,0.063185,0.622306,0.076693,-0.04309,0.727084,-0.006543,-0.036043,0.711328,-0.054759,0.183371,0.468507,-0.072782,0,0,0,0,0,0,0,0,0,0,0,0,0,1,0
1318,'2025/06/17 09:44:26:175',13,-0.112363,-0.034008,-0.014086,-0.003351,0.007315,0.184591,0,0.091127,0.063185,0.622306,0.076693,-0.04309,0.727084,-0.006543,-0.036043,0.711328,-0.054759,0.183371,0.468507,-0.072782,0,0,0,0,0,0,0,0,0,0,0,0,0,1,0
1319,'2025/06/17 09:44:26:181',13,-0.112363,-0.034008,-0.014086,-0.003351,0.007315,0.184591,0,0.091127,0.063185,0.622306,0.076693,-0.04309,0.727084,-0.006543,-0.036043,0.711328,-0.054759,0.183371,0.468507,-0.072782,0,0,0,0,0,0,0,0,0,0,0,0,0,1,0
1320,'2025/06/17 09:44:26:187',13,-0.112363,-0.034008,-0.014086,-0.003351,0.007315,0.184591,0,0.091127,0.063185,0.622306,0.076693,-0.04309,0.727084,-0.006543,-0.036043,0.711328,-0.054759,0.183371,0.468507,-0.072782,0,0,0,0,0,0,0,0,0,0,0,0,0,1,0
1321,'2025/06/17 09:44:26:194',13,-0.112363,-0.034008,-0.014086,-0.003351,0.007315,0.184591,0,0.091127,0.063185,0.622306,0.076693,-0.04309,0.727084,-0.006543,-0.036043,0.711328,-0.054759,0.183371,0.468507,-0.072782,0,0,0,0,0,0,0,0,0,0,0,0,0,1,0
1322,'2025/06/17 09:44:26:202',13,-0.112363,-0.034008,-0.014086,-0.003351,0.007315,0.184591,0,0.091127,0.063185,0.622306,0.076693,-0.04309,0.727084,-0.006543,-0.036043,0.711328,-0.054759,0.183371,0.468507,-0.072782,0,0,0,0,0,0,0,0,0,0,0,0,0,1,0
1323,'2025/06/17 09:44:26:208',13,-0.112363,-0.034008,-0.014086,-0.003351,0.007315,0.184591,0,0.091127,0.063185,0.622306,0.076693,-0.04309,0.727084,-0.006543,-0.036043,0.711328,-0.054759,0.183371,0.468507,-0.072782,0,0,0,0,0,0,0,0,0,0,0,0,0,1,0
1324,'2025/06/17 09:44:26:214',13,-0.112363,-0.034008,-0.014086,-0.003351,0.007315,0.184591,0,0.091127,0.063185,0.622306,0.076693,-0.04309,0.727084,-0.006543,-0.036043,0.711328,-0.054759,0.183371,0.468507,-0.072782,0,0,0,0,0,0,0,0,0,0,0,0,0,1,0
1325,'2025/06/17 09:44:26:222',13,-0.112363,-0.034008,-0.014086,-0.003351,0.007315,0.184591,0,0.091127,0.063185,0.622306,0.076693,-0.04309,0.727084,-0.006543,-0.036043,0.711328,-0.054759,0.183371,0.468507,-0.072782,0,0,0,0,0,0,0,0,0,0,0,0,0,1,0
1326,'2025/06/17 09:44:26:229',13,-0.112363,-0.034008,-0.014086,-0.003351,0.007315,0.184591,0,0.091127,0.063185,0.622306,0.076693,-0.04309,0.727084,-0.006543,-0.036043,0.711328,-0.054759,0.183371,0.468507,-0.072782,0,0,0,0,0,0,0,0,0,0,0,0,0,1,0
1327,'2025/06/17 09:44:26:237',13,-0.112363,-0.034008,-0.014086,-0.003351,0.007315,0.184591,0,0.091127,0.063185,0.622306,0.076693,-0.04309,0.727084,-0.006543,-0.036043,0.711328,-0.054759,0.183371,0.468507,-0.072782,0,0,0,0,0,0,0,0,0,0,0,0,0,1,0
1328,'2025/06/17 09:44:26:244',13,-0.112363,-0.034008,-0.014086,-0.003351,0.007315,0.184591,0,0.091127,0.063185,0.622306,0.076693,-0.04309,0.727084,-0.006543,-0.036043,0.711328,-0.054759,0.183371,0.468507,-0.072782,0,0,0,0,0,0,0,0,0,0,0,0,0,1,0
1329,'2025/06/17 09:44:26:251',13,-0.112363,-0.034008,-0.014086,-0.003351,0.007315,0.184591,0,0.091127,0.063185,0.622306,0.076693,-0.04309,0.727084,-0.006543,-0.036043,0.711328,-0.054759,0.183371,0.468507,-0.072782,0,0,0,0,0,0,0,0,0,0,0,0,0,1,0
1330,'2025/06/17 09:44:26:257',13,-0.112363,-0.034008,-0.014086,-0.003351,0.007315,0.184591,0,0.091127,0.063185,0.622306,0.076693,-0.04309,0.727084,-0.006543,-0.036043,0.711328,-0.054759,0.183371,0.468507,-0.072782,0,0,0,0,0,0,0,0,0,0,0,0,0,1,0
1331,'2025/06/17 09:44:26:265',13,-0.112363,-0.034008,-0.014086,-0.003351,0.007315,0.184591,0,0.091127,0.063185,0.622306,0.076693,-0.04309,0.727084,-0.006543,-0.036043,0.711328,-0.054759,0.183371,0.468507,-0.072782,0,0,0,0,0,0,0,0,0,0,0,0,0,1,0
1332,'2025/06/17 09:44:26:272',13,-0.112363,-0.034008,-0.014086,-0.003351,0.007315,0.184591,0,0.091127,0.063185,0.622306,0.076693,-0.04309,0.727084,-0.006543,-0.036043,0.711328,-0.054759,0.183371,0.468507,-0.072782,0,0,0,0,0,0,0,0,0,0,0,0,0,1,0
1333,'2025/06/17 09:44:26:279',13,-0.112363,-0.034008,-0.014086,-0.003351,0.007315,0.184591,0,0.091127,0.063185,0.622306,0.076693,-0.04309,0.727084,-0.006543,-0.036043,0.711328,-0.054759,0.183371,0.468507,-0.072782,0,0,0,0,0,0,0,0,0,0,0,0,0,1,0
1334,'2025/06/17 09:44:26:286',13,-0.112363,-0.034008,-0.014086,-0.003351,0.007315,0.184591,0,0.091127,0.063185,0.622306,0.076693,-0.04309,0.727084,-0.006543,-0.036043,0.711328,-0.054759,0.183371,0.468507,-0.072782,0,0,0,0,0,0,0,0,0,0,0,0,0,1,0
1335,'2025/06/17 09:44:26:293',13,-0.112363,-0.034008,-0.014086,-0.003351,0.007315,0.184591,0,0.091127,0.063185,0.622306,0.076693,-0.04309,0.727084,-0.006543,-0.036043,0.711328,-0.054759,0.183371,0.468507,-0.072782,0,0,0,0,0,0,0,0,0,0,0,0,0,1,0
1336,'2025/06/17 09:44:26:301',13,-0.112363,-0.034008,-0.014086,-0.003351,0.007315,0.184591,0,0.091127,0.063185,0.622306,0.076693,-0.04309,0.727084,-0.006543,-0.036043,0.711328,-0.054759,0.183371,0.468507,-0.072782,0,0,0,0,0,0,0,0,0,0,0,0,0,1,0
1337,'2025/06/17 09:44:26:308',13,-0.112363,-0.034008,-0.014086,-0.003351,0.007315,0.184591,0,0.091127,0.063185,0.622306,0.076693,-0.04309,0.727084,-0.006543,-0.036043,0.711328,-0.054759,0.183371,0.468507,-0.072782,0,0,0,0,0,0,0,0,0,0,0,0,0,1,0
1338,'2025/06/17 09:44:26:315',13,-0.112363,-0.034008,-0.014086,-0.003351,0.007315,0.184591,0,0.091127,0.063185,0.622306,0.076693,-0.04309,0.727084,-0.006543,-0.036043,0.711328,-0.054759,0.183371,0.468507,-0.072782,0,0,0,0,0,0,0,0,0,0,0,0,0,1,0
1339,'2025/06/17 09:44:26:324',13,-0.112363,-0.034008,-0.014086,-0.003351,0.007315,0.184591,0,0.091127,0.063185,0.622306,0.076693,-0.04309,0.727084,-0.006543,-0.036043,0.711328,-0.054759,0.183371,0.468507,-0.072782,0,0,0,0,0,0,0,0,0,0,0,0,0,1,0
1340,'2025/06/17 09:44:26:330',13,-0.112363,-0.034008,-0.014086,-0.003351,0.007315,0.184591,0,0.091127,0.063185,0.622306,0.076693,-0.04309,0.727084,-0.006543,-0.036043,0.711328,-0.054759,0.183371,0.468507,-0.072782,0,0,0,0,0,0,0,0,0,0,0,0,0,1,0
1341,'2025/06/17 09:44:26:336',13,-0.112363,-0.034008,-0.014086,-0.003351,0.007315,0.184591,0,0.091127,0.063185,0.622306,0.076693,-0.04309,0.727084,-0.006543,-0.036043,0.711328,-0.054759,0.183371,0.468507,-0.072782,0,0,0,0,0,0,0,0,0,0,0,0,0,1,0
1342,'2025/06/17 09:44:26:344',13,-0.112363,-0.034008,-0.014086,-0.003351,0.007315,0.184591,0,0.091127,0.063185,0.622306,0.076693,-0.04309,0.727084,-0.006543,-0.036043,0.711328,-0.054759,0.183371,0.468507,-0.072782,0,0,0,0,0,0,0,0,0,0,0,0,0,1,0
1343,'2025/06/17 09:45:38:664',14,0.468293,-0.017292,-0.077408,-0.124057,-0.082626,0.190301,0,-0.487371,0.638577,0.796237,-0.026595,0.722079,0.70974,0.011226,0.756335,0.686977,0.053771,0.739026,0.742479,0.006678,0,1,0,0,0,0,0,0,0,0,0,0,0,0,1
1344,'2025/06/17 09:45:38:671',14,0.468293,-0.017292,-0.077408,-0.124057,-0.082626,0.190301,0,-0.487371,0.638577,0.796237,-0.026595,0.722079,0.70974,0.011226,0.756335,0.686977,0.053771,0.739026,0.742479,0.006678,0,1,0,0,0,0,0,0,0,0,0,0,0,0,1
1345,'2025/06/17 09:45:38:678',14,0.468293,-0.017292,-0.077408,-0.124057,-0.082626,0.190301,0,-0.487371,0.638577,0.796237,-0.026595,0.722079,0.70974,0.011226,0.756335,0.686977,0.053771,0.739026,0.742479,0.006678,0,1,0,0,0,0,0,0,0,0,0,0,0,0,1
1346,'2025/06/17 09:45:38:687',14,0.468293,-0.017292,-0.077408,-0.124057,-0.082626,0.190301,0,-0.487371,0.638577,0.796237,-0.026595,0.722079,0.70974,0.011226,0.756335,0.686977,0.053771,0.739026,0.742479,0.006678,0,1,0,0,0,0,0,0,0,0,0,0,0,0,1
1347,'2025/06/17 09:45:38:695',14,0.468293,-0.017292,-0.077408,-0.124057,-0.082626,0.190301,0,-0.487371,0.638577,0.796237,-0.026595,0.722079,0.70974,0.011226,0.756335,0.686977,0.053771,0.739026,0.742479,0.006678,0,1,0,0,0,0,0,0,0,0,0,0,0,0,1
1348,'2025/06/17 09:45:38:704',14,0.468293,-0.017292,-0.077408,-0.124057,-0.082626,0.190301,0,-0.487371,0.638577,0.796237,-0.026595,0.722079,0.70974,0.011226,0.756335,0.686977,0.053771,0.739026,0.742479,0.006678,0,1,0,0,0,0,0,0,0,0,0,0,0,0,1
1349,'2025/06/17 09:45:38:712',14,0.468293,-0.017292,-0.077408,-0.124057,-0.082626,0.190301,0,-0.487371,0.638577,0.796237,-0.026595,0.722079,0.70974,0.011226,0.756335,0.686977,0.053771,0.739026,0.742479,0.006678,0,1,0,0,0,0,0,0,0,0,0,0,0,0,1
1350,'2025/06/17 09:45:38:718',14,0.468293,-0.017292,-0.077408,-0.124057,-0.082626,0.190301,0,-0.487371,0.638577,0.796237,-0.026595,0.722079,0.70974,0.011226,0.756335,0.686977,0.053771,0.739026,0.742479,0.006678,0,1,0,0,0,0,0,0,0,0,0,0,0,0,1
1351,'2025/06/17 09:45:38:726',14,0.468293,-0.017292,-0.077408,-0.124057,-0.082626,0.190301,0,-0.487371,0.638577,0.796237,-0.026595,0.722079,0.70974,0.011226,0.756335,0.686977,0.053771,0.739026,0.742479,0.006678,0,1,0,0,0,0,0,0,0,0,0,0,0,0,1
1352,'2025/06/17 09:45:38:734',14,0.468293,-0.017292,-0.077408,-0.124057,-0.082626,0.190301,0,-0.487371,0.638577,0.796237,-0.026595,0.722079,0.70974,0.011226,0.756335,0.686977,0.053771,0.739026,0.742479,0.006678,0,1,0,0,0,0,0,0,0,0,0,0,0,0,1
1353,'2025/06/17 09:45:38:742',14,0.468293,-0.017292,-0.077408,-0.124057,-0.082626,0.190301,0,-0.487371,0.638577,0.796237,-0.026595,0.722079,0.70974,0.011226,0.756335,0.686977,0.053771,0.739026,0.742479,0.006678,0,1,0,0,0,0,0,0,0,0,0,0,0,0,1
1354,'2025/06/17 09:45:38:749',14,0.468293,-0.017292,-0.077408,-0.124057,-0.082626,0.190301,0,-0.487371,0.638577,0.796237,-0.026595,0.722079,0.70974,0.011226,0.756335,0.686977,0.053771,0.739026,0.742479,0.006678,0,1,0,0,0,0,0,0,0,0,0,0,0,0,1
1355,'2025/06/17 09:45:38:757',14,0.468293,-0.017292,-0.077408,-0.124057,-0.082626,0.190301,0,-0.487371,0.638577,0.796237,-0.026595,0.722079,0.70974,0.011226,0.756335,0.686977,0.053771,0.739026,0.742479,0.006678,0,1,0,0,0,0,0,0,0,0,0,0,0,0,1
1356,'2025/06/17 09:45:38:765',14,0.468293,-0.017292,-0.077408,-0.124057,-0.082626,0.190301,0,-0.487371,0.638577,0.796237,-0.026595,0.722079,0.70974,0.011226,0.756335,0.686977,0.053771,0.739026,0.742479,0.006678,0,1,0,0,0,0,0,0,0,0,0,0,0,0,1
1357,'2025/06/17 09:45:38:773',14,0.468293,-0.017292,-0.077408,-0.124057,-0.082626,0.190301,0,-0.487371,0.638577,0.796237,-0.026595,0.722079,0.70974,0.011226,0.756335,0.686977,0.053771,0.739026,0.742479,0.006678,0,1,0,0,0,0,0,0,0,0,0,0,0,0,1
1358,'2025/06/17 09:45:38:780',14,0.468293,-0.017292,-0.077408,-0.124057,-0.082626,0.190301,0,-0.487371,0.638577,0.796237,-0.026595,0.722079,0.70974,0.011226,0.756335,0.686977,0.053771,0.739026,0.742479,0.006678,0,1,0,0,0,0,0,0,0,0,0,0,0,0,1
1359,'2025/06/17 09:45:38:786',14,0.468293,-0.017292,-0.077408,-0.124057,-0.082626,0.190301,0,-0.487371,0.638577,0.796237,-0.026595,0.722079,0.70974,0.011226,0.756335,0.686977,0.053771,0.739026,0.742479,0.006678,0,1,0,0,0,0,0,0,0,0,0,0,0,0,1
1360,'2025/06/17 09:45:38:794',14,0.468293,-0.017292,-0.077408,-0.124057,-0.082626,0.190301,0,-0.487371,0.638577,0.796237,-0.026595,0.722079,0.70974,0.011226,0.756335,0.686977,0.053771,0.739026,0.742479,0.006678,0,1,0,0,0,0,0,0,0,0,0,0,0,0,1
1361,'2025/06/17 09:45:38:802',14,0.468293,-0.017292,-0.077408,-0.124057,-0.082626,0.190301,0,-0.487371,0.638577,0.796237,-0.026595,0.722079,0.70974,0.011226,0.756335,0.686977,0.053771,0.739026,0.742479,0.006678,0,1,0,0,0,0,0,0,0,0,0,0,0,0,1
1362,'2025/06/17 09:45:38:809',14,0.468293,-0.017292,-0.077408,-0.124057,-0.082626,0.190301,0,-0.487371,0.638577,0.796237,-0.026595,0.722079,0.70974,0.011226,0.756335,0.686977,0.053771,0.739026,0.742479,0.006678,0,1,0,0,0,0,0,0,0,0,0,0,0,0,1
1363,'2025/06/17 09:45:38:818',14,0.468293,-0.017292,-0.077408,-0.124057,-0.082626,0.190301,0,-0.487371,0.638577,0.796237,-0.026595,0.722079,0.70974,0.011226,0.756335,0.686977,0.053771,0.739026,0.742479,0.006678,0,1,0,0,0,0,0,0,0,0,0,0,0,0,1
1364,'2025/06/17 09:45:38:826',14,0.468293,-0.017292,-0.077408,-0.124057,-0.082626,0.190301,0,-0.487371,0.638577,0.796237,-0.026595,0.722079,0.70974,0.011226,0.756335,0.686977,0.053771,0.739026,0.742479,0.006678,0,1,0,0,0,0,0,0,0,0,0,0,0,0,1
1365,'2025/06/17 09:45:38:833',14,0.468293,-0.017292,-0.077408,-0.124057,-0.082626,0.190301,0,-0.487371,0.638577,0.796237,-0.026595,0.722079,0.70974,0.011226,0.756335,0.686977,0.053771,0.739026,0.742479,0.006678,0,1,0,0,0,0,0,0,0,0,0,0,0,0,1
1366,'2025/06/17 09:45:38:841',14,0.468293,-0.017292,-0.077408,-0.124057,-0.082626,0.190301,0,-0.487371,0.638577,0.796237,-0.026595,0.722079,0.70974,0.011226,0.756335,0.686977,0.053771,0.739026,0.742479,0.006678,0,1,0,0,0,0,0,0,0,0,0,0,0,0,1
1367,'2025/06/17 09:45:38:848',14,0.468293,-0.017292,-0.077408,-0.124057,-0.082626,0.190301,0,-0.487371,0.638577,0.796237,-0.026595,0.722079,0.70974,0.011226,0.756335,0.686977,0.053771,0.739026,0.742479,0.006678,0,1,0,0,0,0,0,0,0,0,0,0,0,0,1
1368,'2025/06/17 09:45:38:856',14,0.468293,-0.017292,-0.077408,-0.124057,-0.082626,0.190301,0,-0.487371,0.638577,0.796237,-0.026595,0.722079,0.70974,0.011226,0.756335,0.686977,0.053771,0.739026,0.742479,0.006678,0,1,0,0,0,0,0,0,0,0,0,0,0,0,1
1369,'2025/06/17 09:45:38:864',14,0.468293,-0.017292,-0.077408,-0.124057,-0.082626,0.190301,0,-0.487371,0.638577,0.796237,-0.026595,0.722079,0.70974,0.011226,0.756335,0.686977,0.053771,0.739026,0.742479,0.006678,0,1,0,0,0,0,0,0,0,0,0,0,0,0,1
1370,'2025/06/17 09:45:38:872',14,0.468293,-0.017292,-0.077408,-0.124057,-0.082626,0.190301,0,-0.487371,0.638577,0.796237,-0.026595,0.722079,0.70974,0.011226,0.756335,0.686977,0.053771,0.739026,0.742479,0.006678,0,1,0,0,0,0,0,0,0,0,0,0,0,0,1
1371,'2025/06/17 09:45:38:877',14,0.468293,-0.017292,-0.077408,-0.124057,-0.082626,0.190301,0,-0.487371,0.638577,0.796237,-0.026595,0.722079,0.70974,0.011226,0.756335,0.686977,0.053771,0.739026,0.742479,0.006678,0,1,0,0,0,0,0,0,0,0,0,0,0,0,1
1372,'2025/06/17 09:45:38:885',14,0.468293,-0.017292,-0.077408,-0.124057,-0.082626,0.190301,0,-0.487371,0.638577,0.796237,-0.026595,0.722079,0.70974,0.011226,0.756335,0.686977,0.053771,0.739026,0.742479,0.006678,0,1,0,0,0,0,0,0,0,0,0,0,0,0,1
1373,'2025/06/17 09:45:38:892',14,0.468293,-0.017292,-0.077408,-0.124057,-0.082626,0.190301,0,-0.487371,0.638577,0.796237,-0.026595,0.722079,0.70974,0.011226,0.756335,0.686977,0.053771,0.739026,0.742479,0.006678,0,1,0,0,0,0,0,0,0,0,0,0,0,0,1
1374,'2025/06/17 09:45:38:900',14,0.468293,-0.017292,-0.077408,-0.124057,-0.082626,0.190301,0,-0.487371,0.638577,0.796237,-0.026595,0.722079,0.70974,0.011226,0.756335,0.686977,0.053771,0.739026,0.742479,0.006678,0,1,0,0,0,0,0,0,0,0,0,0,0,0,1
1375,'2025/06/17 09:45:38:908',14,0.468293,-0.017292,-0.077408,-0.124057,-0.082626,0.190301,0,-0.487371,0.638577,0.796237,-0.026595,0.722079,0.70974,0.011226,0.756335,0.686977,0.053771,0.739026,0.742479,0.006678,0,1,0,0,0,0,0,0,0,0,0,0,0,0,1
1376,'2025/06/17 09:45:38:915',14,0.468293,-0.017292,-0.077408,-0.124057,-0.082626,0.190301,0,-0.487371,0.638577,0.796237,-0.026595,0.722079,0.70974,0.011226,0.756335,0.686977,0.053771,0.739026,0.742479,0.006678,0,1,0,0,0,0,0,0,0,0,0,0,0,0,1
1377,'2025/06/17 09:45:38:922',14,0.468293,-0.017292,-0.077408,-0.124057,-0.082626,0.190301,0,-0.487371,0.638577,0.796237,-0.026595,0.722079,0.70974,0.011226,0.756335,0.686977,0.053771,0.739026,0.742479,0.006678,0,1,0,0,0,0,0,0,0,0,0,0,0,0,1
1378,'2025/06/17 09:45:38:929',14,0.468293,-0.017292,-0.077408,-0.124057,-0.082626,0.190301,0,-0.487371,0.638577,0.796237,-0.026595,0.722079,0.70974,0.011226,0.756335,0.686977,0.053771,0.739026,0.742479,0.006678,0,1,0,0,0,0,0,0,0,0,0,0,0,0,1
1379,'2025/06/17 09:45:38:935',14,0.468293,-0.017292,-0.077408,-0.124057,-0.082626,0.190301,0,-0.487371,0.638577,0.796237,-0.026595,0.722079,0.70974,0.011226,0.756335,0.686977,0.053771,0.739026,0.742479,0.006678,0,1,0,0,0,0,0,0,0,0,0,0,0,0,1
1380,'2025/06/17 09:45:38:944',14,0.468293,-0.017292,-0.077408,-0.124057,-0.082626,0.190301,0,-0.487371,0.638577,0.796237,-0.026595,0.722079,0.70974,0.011226,0.756335,0.686977,0.053771,0.739026,0.742479,0.006678,0,1,0,0,0,0,0,0,0,0,0,0,0,0,1
1381,'2025/06/17 09:45:38:951',14,0.468293,-0.017292,-0.077408,-0.124057,-0.082626,0.190301,0,-0.487371,0.638577,0.796237,-0.026595,0.722079,0.70974,0.011226,0.756335,0.686977,0.053771,0.739026,0.742479,0.006678,0,1,0,0,0,0,0,0,0,0,0,0,0,0,1
1382,'2025/06/17 09:45:38:958',14,0.468293,-0.017292,-0.077408,-0.124057,-0.082626,0.190301,0,-0.487371,0.638577,0.796237,-0.026595,0.722079,0.70974,0.011226,0.756335,0.686977,0.053771,0.739026,0.742479,0.006678,0,1,0,0,0,0,0,0,0,0,0,0,0,0,1
1383,'2025/06/17 09:45:38:966',14,0.468293,-0.017292,-0.077408,-0.124057,-0.082626,0.190301,0,-0.487371,0.638577,0.796237,-0.026595,0.722079,0.70974,0.011226,0.756335,0.686977,0.053771,0.739026,0.742479,0.006678,0,1,0,0,0,0,0,0,0,0,0,0,0,0,1
1384,'2025/06/17 09:45:38:973',14,0.468293,-0.017292,-0.077408,-0.124057,-0.082626,0.190301,0,-0.487371,0.638577,0.796237,-0.026595,0.722079,0.70974,0.011226,0.756335,0.686977,0.053771,0.739026,0.742479,0.006678,0,1,0,0,0,0,0,0,0,0,0,0,0,0,1
1385,'2025/06/17 09:45:38:982',14,0.468293,-0.017292,-0.077408,-0.124057,-0.082626,0.190301,0,-0.487371,0.638577,0.796237,-0.026595,0.722079,0.70974,0.011226,0.756335,0.686977,0.053771,0.739026,0.742479,0.006678,0,1,0,0,0,0,0,0,0,0,0,0,0,0,1
1386,'2025/06/17 09:45:38:987',14,0.468293,-0.017292,-0.077408,-0.124057,-0.082626,0.190301,0,-0.487371,0.638577,0.796237,-0.026595,0.722079,0.70974,0.011226,0.756335,0.686977,0.053771,0.739026,0.742479,0.006678,0,1,0,0,0,0,0,0,0,0,0,0,0,0,1
1387,'2025/06/17 09:45:38:995',14,0.468293,-0.017292,-0.077408,-0.124057,-0.082626,0.190301,0,-0.487371,0.638577,0.796237,-0.026595,0.722079,0.70974,0.011226,0.756335,0.686977,0.053771,0.739026,0.742479,0.006678,0,1,0,0,0,0,0,0,0,0,0,0,0,0,1
1388,'2025/06/17 09:45:39:003',14,0.468293,-0.017292,-0.077408,-0.124057,-0.082626,0.190301,0,-0.487371,0.638577,0.796237,-0.026595,0.722079,0.70974,0.011226,0.756335,0.686977,0.053771,0.739026,0.742479,0.006678,0,1,0,0,0,0,0,0,0,0,0,0,0,0,1
1389,'2025/06/17 09:45:39:011',14,0.468293,-0.017292,-0.077408,-0.124057,-0.082626,0.190301,0,-0.487371,0.638577,0.796237,-0.026595,0.722079,0.70974,0.011226,0.756335,0.686977,0.053771,0.739026,0.742479,0.006678,0,1,0,0,0,0,0,0,0,0,0,0,0,0,1
1390,'2025/06/17 09:45:39:016',14,0.468293,-0.017292,-0.077408,-0.124057,-0.082626,0.190301,0,-0.487371,0.638577,0.796237,-0.026595,0.722079,0.70974,0.011226,0.756335,0.686977,0.053771,0.739026,0.742479,0.006678,0,1,0,0,0,0,0,0,0,0,0,0,0,0,1
1391,'2025/06/17 09:45:39:024',14,0.468293,-0.017292,-0.077408,-0.124057,-0.082626,0.190301,0,-0.487371,0.638577,0.796237,-0.026595,0.722079,0.70974,0.011226,0.756335,0.686977,0.053771,0.739026,0.742479,0.006678,0,1,0,0,0,0,0,0,0,0,0,0,0,0,1
1392,'2025/06/17 09:45:39:030',14,0.468293,-0.017292,-0.077408,-0.124057,-0.082626,0.190301,0,-0.487371,0.638577,0.796237,-0.026595,0.722079,0.70974,0.011226,0.756335,0.686977,0.053771,0.739026,0.742479,0.006678,0,1,0,0,0,0,0,0,0,0,0,0,0,0,1
1393,'2025/06/17 09:45:39:036',14,0.468293,-0.017292,-0.077408,-0.124057,-0.082626,0.190301,0,-0.487371,0.638577,0.796237,-0.026595,0.722079,0.70974,0.011226,0.756335,0.686977,0.053771,0.739026,0.742479,0.006678,0,1,0,0,0,0,0,0,0,0,0,0,0,0,1
1394,'2025/06/17 09:45:39:044',14,0.468293,-0.017292,-0.077408,-0.124057,-0.082626,0.190301,0,-0.487371,0.638577,0.796237,-0.026595,0.722079,0.70974,0.011226,0.756335,0.686977,0.053771,0.739026,0.742479,0.006678,0,1,0,0,0,0,0,0,0,0,0,0,0,0,1
1395,'2025/06/17 09:45:39:049',14,0.468293,-0.017292,-0.077408,-0.124057,-0.082626,0.190301,0,-0.487371,0.638577,0.796237,-0.026595,0.722079,0.70974,0.011226,0.756335,0.686977,0.053771,0.739026,0.742479,0.006678,0,1,0,0,0,0,0,0,0,0,0,0,0,0,1
1396,'2025/06/17 09:45:39:056',14,0.468293,-0.017292,-0.077408,-0.124057,-0.082626,0.190301,0,-0.487371,0.638577,0.796237,-0.026595,0.722079,0.70974,0.011226,0.756335,0.686977,0.053771,0.739026,0.742479,0.006678,0,1,0,0,0,0,0,0,0,0,0,0,0,0,1
1397,'2025/06/17 09:45:39:064',14,0.468293,-0.017292,-0.077408,-0.124057,-0.082626,0.190301,0,-0.487371,0.638577,0.796237,-0.026595,0.722079,0.70974,0.011226,0.756335,0.686977,0.053771,0.739026,0.742479,0.006678,0,1,0,0,0,0,0,0,0,0,0,0,0,0,1
1398,'2025/06/17 09:45:39:071',14,0.468293,-0.017292,-0.077408,-0.124057,-0.082626,0.190301,0,-0.487371,0.638577,0.796237,-0.026595,0.722079,0.70974,0.011226,0.756335,0.686977,0.053771,0.739026,0.742479,0.006678,0,1,0,0,0,0,0,0,0,0,0,0,0,0,1
1399,'2025/06/17 09:45:39:077',14,0.468293,-0.017292,-0.077408,-0.124057,-0.082626,0.190301,0,-0.487371,0.638577,0.796237,-0.026595,0.722079,0.70974,0.011226,0.756335,0.686977,0.053771,0.739026,0.742479,0.006678,0,1,0,0,0,0,0,0,0,0,0,0,0,0,1
1400,'2025/06/17 09:45:39:084',14,0.468293,-0.017292,-0.077408,-0.124057,-0.082626,0.190301,0,-0.487371,0.638577,0.796237,-0.026595,0.722079,0.70974,0.011226,0.756335,0.686977,0.053771,0.739026,0.742479,0.006678,0,1,0,0,0,0,0,0,0,0,0,0,0,0,1
1401,'2025/06/17 09:45:39:092',14,0.468293,-0.017292,-0.077408,-0.124057,-0.082626,0.190301,0,-0.487371,0.638577,0.796237,-0.026595,0.722079,0.70974,0.011226,0.756335,0.686977,0.053771,0.739026,0.742479,0.006678,0,1,0,0,0,0,0,0,0,0,0,0,0,0,1
1402,'2025/06/17 09:45:39:098',14,0.468293,-0.017292,-0.077408,-0.124057,-0.082626,0.190301,0,-0.487371,0.638577,0.796237,-0.026595,0.722079,0.70974,0.011226,0.756335,0.686977,0.053771,0.739026,0.742479,0.006678,0,1,0,0,0,0,0,0,0,0,0,0,0,0,1
1403,'2025/06/17 09:45:39:106',14,0.468293,-0.017292,-0.077408,-0.124057,-0.082626,0.190301,0,-0.487371,0.638577,0.796237,-0.026595,0.722079,0.70974,0.011226,0.756335,0.686977,0.053771,0.739026,0.742479,0.006678,0,1,0,0,0,0,0,0,0,0,0,0,0,0,1
1404,'2025/06/17 09:45:39:114',14,0.468293,-0.017292,-0.077408,-0.124057,-0.082626,0.190301,0,-0.487371,0.638577,0.796237,-0.026595,0.722079,0.70974,0.011226,0.756335,0.686977,0.053771,0.739026,0.742479,0.006678,0,1,0,0,0,0,0,0,0,0,0,0,0,0,1
1405,'2025/06/17 09:45:39:122',14,0.468293,-0.017292,-0.077408,-0.124057,-0.082626,0.190301,0,-0.487371,0.638577,0.796237,-0.026595,0.722079,0.70974,0.011226,0.756335,0.686977,0.053771,0.739026,0.742479,0.006678,0,1,0,0,0,0,0,0,0,0,0,0,0,0,1
1406,'2025/06/17 09:45:39:129',14,0.468293,-0.017292,-0.077408,-0.124057,-0.082626,0.190301,0,-0.487371,0.638577,0.796237,-0.026595,0.722079,0.70974,0.011226,0.756335,0.686977,0.053771,0.739026,0.742479,0.006678,0,1,0,0,0,0,0,0,0,0,0,0,0,0,1
1407,'2025/06/17 09:45:39:136',14,0.468293,-0.017292,-0.077408,-0.124057,-0.082626,0.190301,0,-0.487371,0.638577,0.796237,-0.026595,0.722079,0.70974,0.011226,0.756335,0.686977,0.053771,0.739026,0.742479,0.006678,0,1,0,0,0,0,0,0,0,0,0,0,0,0,1
1408,'2025/06/17 09:45:39:144',14,0.468293,-0.017292,-0.077408,-0.124057,-0.082626,0.190301,0,-0.487371,0.638577,0.796237,-0.026595,0.722079,0.70974,0.011226,0.756335,0.686977,0.053771,0.739026,0.742479,0.006678,0,1,0,0,0,0,0,0,0,0,0,0,0,0,1
1409,'2025/06/17 09:45:39:151',14,0.468293,-0.017292,-0.077408,-0.124057,-0.082626,0.190301,0,-0.487371,0.638577,0.796237,-0.026595,0.722079,0.70974,0.011226,0.756335,0.686977,0.053771,0.739026,0.742479,0.006678,0,1,0,0,0,0,0,0,0,0,0,0,0,0,1
1410,'2025/06/17 09:45:39:159',14,0.468293,-0.017292,-0.077408,-0.124057,-0.082626,0.190301,0,-0.487371,0.638577,0.796237,-0.026595,0.722079,0.70974,0.011226,0.756335,0.686977,0.053771,0.739026,0.742479,0.006678,0,1,0,0,0,0,0,0,0,0,0,0,0,0,1
1411,'2025/06/17 09:45:39:166',14,0.468293,-0.017292,-0.077408,-0.124057,-0.082626,0.190301,0,-0.487371,0.638577,0.796237,-0.026595,0.722079,0.70974,0.011226,0.756335,0.686977,0.053771,0.739026,0.742479,0.006678,0,1,0,0,0,0,0,0,0,0,0,0,0,0,1
1412,'2025/06/17 09:45:39:172',14,0.468293,-0.017292,-0.077408,-0.124057,-0.082626,0.190301,0,-0.487371,0.638577,0.796237,-0.026595,0.722079,0.70974,0.011226,0.756335,0.686977,0.053771,0.739026,0.742479,0.006678,0,1,0,0,0,0,0,0,0,0,0,0,0,0,1
1413,'2025/06/17 09:45:39:181',14,0.468293,-0.017292,-0.077408,-0.124057,-0.082626,0.190301,0,-0.487371,0.638577,0.796237,-0.026595,0.722079,0.70974,0.011226,0.756335,0.686977,0.053771,0.739026,0.742479,0.006678,0,1,0,0,0,0,0,0,0,0,0,0,0,0,1
1414,'2025/06/17 09:45:39:188',14,0.468293,-0.017292,-0.077408,-0.124057,-0.082626,0.190301,0,-0.487371,0.638577,0.796237,-0.026595,0.722079,0.70974,0.011226,0.756335,0.686977,0.053771,0.739026,0.742479,0.006678,0,1,0,0,0,0,0,0,0,0,0,0,0,0,1
1415,'2025/06/17 09:45:39:196',14,0.468293,-0.017292,-0.077408,-0.124057,-0.082626,0.190301,0,-0.487371,0.638577,0.796237,-0.026595,0.722079,0.70974,0.011226,0.756335,0.686977,0.053771,0.739026,0.742479,0.006678,0,1,0,0,0,0,0,0,0,0,0,0,0,0,1
1416,'2025/06/17 09:45:39:203',14,0.468293,-0.017292,-0.077408,-0.124057,-0.082626,0.190301,0,-0.487371,0.638577,0.796237,-0.026595,0.722079,0.70974,0.011226,0.756335,0.686977,0.053771,0.739026,0.742479,0.006678,0,1,0,0,0,0,0,0,0,0,0,0,0,0,1
1417,'2025/06/17 09:45:39:210',14,0.468293,-0.017292,-0.077408,-0.124057,-0.082626,0.190301,0,-0.487371,0.638577,0.796237,-0.026595,0.722079,0.70974,0.011226,0.756335,0.686977,0.053771,0.739026,0.742479,0.006678,0,1,0,0,0,0,0,0,0,0,0,0,0,0,1
1418,'2025/06/17 09:45:39:217',14,0.468293,-0.017292,-0.077408,-0.124057,-0.082626,0.190301,0,-0.487371,0.638577,0.796237,-0.026595,0.722079,0.70974,0.011226,0.756335,0.686977,0.053771,0.739026,0.742479,0.006678,0,1,0,0,0,0,0,0,0,0,0,0,0,0,1
1419,'2025/06/17 09:45:39:224',14,0.468293,-0.017292,-0.077408,-0.124057,-0.082626,0.190301,0,-0.487371,0.638577,0.796237,-0.026595,0.722079,0.70974,0.011226,0.756335,0.686977,0.053771,0.739026,0.742479,0.006678,0,1,0,0,0,0,0,0,0,0,0,0,0,0,1
1420,'2025/06/17 09:45:39:230',14,0.468293,-0.017292,-0.077408,-0.124057,-0.082626,0.190301,0,-0.487371,0.638577,0.796237,-0.026595,0.722079,0.70974,0.011226,0.756335,0.686977,0.053771,0.739026,0.742479,0.006678,0,1,0,0,0,0,0,0,0,0,0,0,0,0,1
1421,'2025/06/17 09:45:39:238',14,0.468293,-0.017292,-0.077408,-0.124057,-0.082626,0.190301,0,-0.487371,0.638577,0.796237,-0.026595,0.722079,0.70974,0.011226,0.756335,0.686977,0.053771,0.739026,0.742479,0.006678,0,1,0,0,0,0,0,0,0,0,0,0,0,0,1
1422,'2025/06/17 09:45:39:246',14,0.468293,-0.017292,-0.077408,-0.124057,-0.082626,0.190301,0,-0.487371,0.638577,0.796237,-0.026595,0.722079,0.70974,0.011226,0.756335,0.686977,0.053771,0.739026,0.742479,0.006678,0,1,0,0,0,0,0,0,0,0,0,0,0,0,1
1423,'2025/06/17 09:45:39:253',14,0.468293,-0.017292,-0.077408,-0.124057,-0.082626,0.190301,0,-0.487371,0.638577,0.796237,-0.026595,0.722079,0.70974,0.011226,0.756335,0.686977,0.053771,0.739026,0.742479,0.006678,0,1,0,0,0,0,0,0,0,0,0,0,0,0,1
1424,'2025/06/17 09:45:39:261',14,0.468293,-0.017292,-0.077408,-0.124057,-0.082626,0.190301,0,-0.487371,0.638577,0.796237,-0.026595,0.722079,0.70974,0.011226,0.756335,0.686977,0.053771,0.739026,0.742479,0.006678,0,1,0,0,0,0,0,0,0,0,0,0,0,0,1
1425,'2025/06/17 09:45:39:267',14,0.468293,-0.017292,-0.077408,-0.124057,-0.082626,0.190301,0,-0.487371,0.638577,0.796237,-0.026595,0.722079,0.70974,0.011226,0.756335,0.686977,0.053771,0.739026,0.742479,0.006678,0,1,0,0,0,0,0,0,0,0,0,0,0,0,1
1426,'2025/06/17 09:45:39:273',14,0.468293,-0.017292,-0.077408,-0.124057,-0.082626,0.190301,0,-0.487371,0.638577,0.796237,-0.026595,0.722079,0.70974,0.011226,0.756335,0.686977,0.053771,0.739026,0.742479,0.006678,0,1,0,0,0,0,0,0,0,0,0,0,0,0,1
1427,'2025/06/17 09:45:39:280',14,0.468293,-0.017292,-0.077408,-0.124057,-0.082626,0.190301,0,-0.487371,0.638577,0.796237,-0.026595,0.722079,0.70974,0.011226,0.756335,0.686977,0.053771,0.739026,0.742479,0.006678,0,1,0,0,0,0,0,0,0,0,0,0,0,0,1
1428,'2025/06/17 09:45:39:286',14,0.468293,-0.017292,-0.077408,-0.124057,-0.082626,0.190301,0,-0.487371,0.638577,0.796237,-0.026595,0.722079,0.70974,0.011226,0.756335,0.686977,0.053771,0.739026,0.742479,0.006678,0,1,0,0,0,0,0,0,0,0,0,0,0,0,1
1429,'2025/06/17 09:45:39:293',14,0.468293,-0.017292,-0.077408,-0.124057,-0.082626,0.190301,0,-0.487371,0.638577,0.796237,-0.026595,0.722079,0.70974,0.011226,0.756335,0.686977,0.053771,0.739026,0.742479,0.006678,0,1,0,0,0,0,0,0,0,0,0,0,0,0,1
1430,'2025/06/17 09:45:39:298',14,0.468293,-0.017292,-0.077408,-0.124057,-0.082626,0.190301,0,-0.487371,0.638577,0.796237,-0.026595,0.722079,0.70974,0.011226,0.756335,0.686977,0.053771,0.739026,0.742479,0.006678,0,1,0,0,0,0,0,0,0,0,0,0,0,0,1
1431,'2025/06/17 09:45:39:305',14,0.468293,-0.017292,-0.077408,-0.124057,-0.082626,0.190301,0,-0.487371,0.638577,0.796237,-0.026595,0.722079,0.70974,0.011226,0.756335,0.686977,0.053771,0.739026,0.742479,0.006678,0,1,0,0,0,0,0,0,0,0,0,0,0,0,1
1432,'2025/06/17 09:45:39:313',14,0.468293,-0.017292,-0.077408,-0.124057,-0.082626,0.190301,0,-0.487371,0.638577,0.796237,-0.026595,0.722079,0.70974,0.011226,0.756335,0.686977,0.053771,0.739026,0.742479,0.006678,0,1,0,0,0,0,0,0,0,0,0,0,0,0,1
1433,'2025/06/17 09:45:39:320',14,0.468293,-0.017292,-0.077408,-0.124057,-0.082626,0.190301,0,-0.487371,0.638577,0.796237,-0.026595,0.722079,0.70974,0.011226,0.756335,0.686977,0.053771,0.739026,0.742479,0.006678,0,1,0,0,0,0,0,0,0,0,0,0,0,0,1
1434,'2025/06/17 09:45:39:328',14,0.468293,-0.017292,-0.077408,-0.124057,-0.082626,0.190301,0,-0.487371,0.638577,0.796237,-0.026595,0.722079,0.70974,0.011226,0.756335,0.686977,0.053771,0.739026,0.742479,0.006678,0,1,0,0,0,0,0,0,0,0,0,0,0,0,1
1435,'2025/06/17 09:45:39:333',14,0.468293,-0.017292,-0.077408,-0.124057,-0.082626,0.190301,0,-0.487371,0.638577,0.796237,-0.026595,0.722079,0.70974,0.011226,0.756335,0.686977,0.053771,0.739026,0.742479,0.006678,0,1,0,0,0,0,0,0,0,0,0,0,0,0,1
1436,'2025/06/17 09:45:39:341',14,0.468293,-0.017292,-0.077408,-0.124057,-0.082626,0.190301,0,-0.487371,0.638577,0.796237,-0.026595,0.722079,0.70974,0.011226,0.756335,0.686977,0.053771,0.739026,0.742479,0.006678,0,1,0,0,0,0,0,0,0,0,0,0,0,0,1
1437,'2025/06/17 09:45:39:347',14,0.468293,-0.017292,-0.077408,-0.124057,-0.082626,0.190301,0,-0.487371,0.638577,0.796237,-0.026595,0.722079,0.70974,0.011226,0.756335,0.686977,0.053771,0.739026,0.742479,0.006678,0,1,0,0,0,0,0,0,0,0,0,0,0,0,1
1438,'2025/06/17 09:45:39:354',14,0.468293,-0.017292,-0.077408,-0.124057,-0.082626,0.190301,0,-0.487371,0.638577,0.796237,-0.026595,0.722079,0.70974,0.011226,0.756335,0.686977,0.053771,0.739026,0.742479,0.006678,0,1,0,0,0,0,0,0,0,0,0,0,0,0,1
1439,'2025/06/17 09:45:39:362',14,0.468293,-0.017292,-0.077408,-0.124057,-0.082626,0.190301,0,-0.487371,0.638577,0.796237,-0.026595,0.722079,0.70974,0.011226,0.756335,0.686977,0.053771,0.739026,0.742479,0.006678,0,1,0,0,0,0,0,0,0,0,0,0,0,0,1
1440,'2025/06/17 09:45:39:370',14,0.468293,-0.017292,-0.077408,-0.124057,-0.082626,0.190301,0,-0.487371,0.638577,0.796237,-0.026595,0.722079,0.70974,0.011226,0.756335,0.686977,0.053771,0.739026,0.742479,0.006678,0,1,0,0,0,0,0,0,0,0,0,0,0,0,1
1441,'2025/06/17 09:45:39:375',14,0.468293,-0.017292,-0.077408,-0.124057,-0.082626,0.190301,0,-0.487371,0.638577,0.796237,-0.026595,0.722079,0.70974,0.011226,0.756335,0.686977,0.053771,0.739026,0.742479,0.006678,0,1,0,0,0,0,0,0,0,0,0,0,0,0,1
1442,'2025/06/17 09:45:39:383',14,0.468293,-0.017292,-0.077408,-0.124057,-0.082626,0.190301,0,-0.487371,0.638577,0.796237,-0.026595,0.722079,0.70974,0.011226,0.756335,0.686977,0.053771,0.739026,0.742479,0.006678,0,1,0,0,0,0,0,0,0,0,0,0,0,0,1
1443,'2025/06/17 09:45:39:389',14,0.468293,-0.017292,-0.077408,-0.124057,-0.082626,0.190301,0,-0.487371,0.638577,0.796237,-0.026595,0.722079,0.70974,0.011226,0.756335,0.686977,0.053771,0.739026,0.742479,0.006678,0,1,0,0,0,0,0,0,0,0,0,0,0,0,1
1444,'2025/06/17 09:45:39:395',14,0.468293,-0.017292,-0.077408,-0.124057,-0.082626,0.190301,0,-0.487371,0.638577,0.796237,-0.026595,0.722079,0.70974,0.011226,0.756335,0.686977,0.053771,0.739026,0.742479,0.006678,0,1,0,0,0,0,0,0,0,0,0,0,0,0,1
1445,'2025/06/17 09:45:39:402',14,0.468293,-0.017292,-0.077408,-0.124057,-0.082626,0.190301,0,-0.487371,0.638577,0.796237,-0.026595,0.722079,0.70974,0.011226,0.756335,0.686977,0.053771,0.739026,0.742479,0.006678,0,1,0,0,0,0,0,0,0,0,0,0,0,0,1
1446,'2025/06/17 09:45:39:409',14,0.468293,-0.017292,-0.077408,-0.124057,-0.082626,0.190301,0,-0.487371,0.638577,0.796237,-0.026595,0.722079,0.70974,0.011226,0.756335,0.686977,0.053771,0.739026,0.742479,0.006678,0,1,0,0,0,0,0,0,0,0,0,0,0,0,1
1447,'2025/06/17 09:45:39:415',14,0.468293,-0.017292,-0.077408,-0.124057,-0.082626,0.190301,0,-0.487371,0.638577,0.796237,-0.026595,0.722079,0.70974,0.011226,0.756335,0.686977,0.053771,0.739026,0.742479,0.006678,0,1,0,0,0,0,0,0,0,0,0,0,0,0,1
1448,'2025/06/17 09:45:39:423',14,0.468293,-0.017292,-0.077408,-0.124057,-0.082626,0.190301,0,-0.487371,0.638577,0.796237,-0.026595,0.722079,0.70974,0.011226,0.756335,0.686977,0.053771,0.739026,0.742479,0.006678,0,1,0,0,0,0,0,0,0,0,0,0,0,0,1
1449,'2025/06/17 09:45:39:428',14,0.468293,-0.017292,-0.077408,-0.124057,-0.082626,0.190301,0,-0.487371,0.638577,0.796237,-0.026595,0.722079,0.70974,0.011226,0.756335,0.686977,0.053771,0.739026,0.742479,0.006678,0,1,0,0,0,0,0,0,0,0,0,0,0,0,1
1450,'2025/06/17 09:45:39:435',14,0.468293,-0.017292,-0.077408,-0.124057,-0.082626,0.190301,0,-0.487371,0.638577,0.796237,-0.026595,0.722079,0.70974,0.011226,0.756335,0.686977,0.053771,0.739026,0.742479,0.006678,0,1,0,0,0,0,0,0,0,0,0,0,0,0,1
1451,'2025/06/17 09:45:39:441',14,0.468293,-0.017292,-0.077408,-0.124057,-0.082626,0.190301,0,-0.487371,0.638577,0.796237,-0.026595,0.722079,0.70974,0.011226,0.756335,0.686977,0.053771,0.739026,0.742479,0.006678,0,1,0,0,0,0,0,0,0,0,0,0,0,0,1
1452,'2025/06/17 09:45:39:447',14,0.468293,-0.017292,-0.077408,-0.124057,-0.082626,0.190301,0,-0.487371,0.638577,0.796237,-0.026595,0.722079,0.70974,0.011226,0.756335,0.686977,0.053771,0.739026,0.742479,0.006678,0,1,0,0,0,0,0,0,0,0,0,0,0,0,1
1453,'2025/06/17 09:45:39:454',14,0.468293,-0.017292,-0.077408,-0.124057,-0.082626,0.190301,0,-0.487371,0.638577,0.796237,-0.026595,0.722079,0.70974,0.011226,0.756335,0.686977,0.053771,0.739026,0.742479,0.006678,0,1,0,0,0,0,0,0,0,0,0,0,0,0,1
