@relation dataset

@attribute ID numeric
@attribute Time date 'yyyy/MM/dd HH:mm:ss:SSS'
@attribute 'Training round' numeric
@attribute inputs-1 numeric
@attribute inputs-2 numeric
@attribute inputs-3 numeric
@attribute inputs-4 numeric
@attribute inputs-5 numeric
@attribute inputs-6 numeric
@attribute inputs-7 numeric
@attribute inputs-8 numeric
@attribute inputs-9 numeric
@attribute inputs-10 numeric
@attribute inputs-11 numeric
@attribute inputs-12 numeric
@attribute inputs-13 numeric
@attribute inputs-14 numeric
@attribute inputs-15 numeric
@attribute inputs-16 numeric
@attribute inputs-17 numeric
@attribute inputs-18 numeric
@attribute inputs-19 numeric
@attribute inputs-20 numeric
@attribute inputs-21 numeric
@attribute inputs-22 numeric
@attribute inputs-23 numeric
@attribute outputs-1 numeric
@attribute outputs-2 numeric
@attribute outputs-3 numeric
@attribute outputs-4 numeric
@attribute outputs-5 numeric
@attribute outputs-6 numeric
@attribute outputs-7 numeric
@attribute outputs-8 numeric
@attribute outputs-9 numeric
@attribute outputs-10 numeric
@attribute outputs-11 numeric
@attribute outputs-12 numeric

@data
1,'2025/06/30 16:14:18:705',1,0.140012,0,0,-0.069732,-0.058794,0.202262,0.392961,0.488109,0,0.009815,-0.009363,0,0,-0.008008,0.636323,0.794793,0.004362,0.623888,0.837521,-0.013651,0,0,0,1,0,0,0,0,0,0,0,0,0,0,0
2,'2025/06/30 16:14:18:713',1,0.140012,0,0,-0.069732,-0.058794,0.202262,0.392961,0.488109,0,0.009815,-0.009363,0,0,-0.008008,0.636323,0.794793,0.004362,0.623888,0.837521,-0.013651,0,0,0,1,0,0,0,0,0,0,0,0,0,0,0
3,'2025/06/30 16:14:18:723',1,0.140012,0,0,-0.069732,-0.058794,0.202262,0.392961,0.488109,0,0.009815,-0.009363,0,0,-0.008008,0.636323,0.794793,0.004362,0.623888,0.837521,-0.013651,0,0,0,1,0,0,0,0,0,0,0,0,0,0,0
4,'2025/06/30 16:14:18:732',1,0.140012,0,0,-0.069732,-0.058794,0.202262,0.392961,0.488109,0,0.009815,-0.009363,0,0,-0.008008,0.636323,0.794793,0.004362,0.623888,0.837521,-0.013651,0,0,0,1,0,0,0,0,0,0,0,0,0,0,0
5,'2025/06/30 16:14:18:741',1,0.140012,0,0,-0.069732,-0.058794,0.202262,0.392961,0.488109,0,0.009815,-0.009363,0,0,-0.008008,0.636323,0.794793,0.004362,0.623888,0.837521,-0.013651,0,0,0,1,0,0,0,0,0,0,0,0,0,0,0
6,'2025/06/30 16:14:18:751',1,0.140012,0,0,-0.069732,-0.058794,0.202262,0.392961,0.488109,0,0.009815,-0.009363,0,0,-0.008008,0.636323,0.794793,0.004362,0.623888,0.837521,-0.013651,0,0,0,1,0,0,0,0,0,0,0,0,0,0,0
7,'2025/06/30 16:14:18:760',1,0.140012,0,0,-0.069732,-0.058794,0.202262,0.392961,0.488109,0,0.009815,-0.009363,0,0,-0.008008,0.636323,0.794793,0.004362,0.623888,0.837521,-0.013651,0,0,0,1,0,0,0,0,0,0,0,0,0,0,0
8,'2025/06/30 16:14:18:767',1,0.140012,0,0,-0.069732,-0.058794,0.202262,0.392961,0.488109,0,0.009815,-0.009363,0,0,-0.008008,0.636323,0.794793,0.004362,0.623888,0.837521,-0.013651,0,0,0,1,0,0,0,0,0,0,0,0,0,0,0
9,'2025/06/30 16:14:18:774',1,0.140012,0,0,-0.069732,-0.058794,0.202262,0.392961,0.488109,0,0.009815,-0.009363,0,0,-0.008008,0.636323,0.794793,0.004362,0.623888,0.837521,-0.013651,0,0,0,1,0,0,0,0,0,0,0,0,0,0,0
10,'2025/06/30 16:14:18:782',1,0.140012,0,0,-0.069732,-0.058794,0.202262,0.392961,0.488109,0,0.009815,-0.009363,0,0,-0.008008,0.636323,0.794793,0.004362,0.623888,0.837521,-0.013651,0,0,0,1,0,0,0,0,0,0,0,0,0,0,0
11,'2025/06/30 16:14:18:791',1,0.140012,0,0,-0.069732,-0.058794,0.202262,0.392961,0.488109,0,0.009815,-0.009363,0,0,-0.008008,0.636323,0.794793,0.004362,0.623888,0.837521,-0.013651,0,0,0,1,0,0,0,0,0,0,0,0,0,0,0
12,'2025/06/30 16:14:18:799',1,0.140012,0,0,-0.069732,-0.058794,0.202262,0.392961,0.488109,0,0.009815,-0.009363,0,0,-0.008008,0.636323,0.794793,0.004362,0.623888,0.837521,-0.013651,0,0,0,1,0,0,0,0,0,0,0,0,0,0,0
13,'2025/06/30 16:14:18:808',1,0.140012,0,0,-0.069732,-0.058794,0.202262,0.392961,0.488109,0,0.009815,-0.009363,0,0,-0.008008,0.636323,0.794793,0.004362,0.623888,0.837521,-0.013651,0,0,0,1,0,0,0,0,0,0,0,0,0,0,0
14,'2025/06/30 16:14:18:817',1,0.140012,0,0,-0.069732,-0.058794,0.202262,0.392961,0.488109,0,0.009815,-0.009363,0,0,-0.008008,0.636323,0.794793,0.004362,0.623888,0.837521,-0.013651,0,0,0,1,0,0,0,0,0,0,0,0,0,0,0
15,'2025/06/30 16:14:18:825',1,0.140012,0,0,-0.069732,-0.058794,0.202262,0.392961,0.488109,0,0.009815,-0.009363,0,0,-0.008008,0.636323,0.794793,0.004362,0.623888,0.837521,-0.013651,0,0,0,1,0,0,0,0,0,0,0,0,0,0,0
16,'2025/06/30 16:14:26:488',2,0.147442,0,0,-0.069732,-0.058794,0.183009,0.354431,0.422963,0,0.009815,-0.009363,0,0,-0.008008,0.636323,0.794793,0.004362,0.623888,0.837521,-0.013651,0,0,0,1,0,0,0,0,0,0,0,0,0,0,0
17,'2025/06/30 16:14:26:497',2,0.147442,0,0,-0.069732,-0.058794,0.183009,0.354431,0.422963,0,0.009815,-0.009363,0,0,-0.008008,0.636323,0.794793,0.004362,0.623888,0.837521,-0.013651,0,0,0,1,0,0,0,0,0,0,0,0,0,0,0
18,'2025/06/30 16:14:26:504',2,0.147442,0,0,-0.069732,-0.058794,0.183009,0.354431,0.422963,0,0.009815,-0.009363,0,0,-0.008008,0.636323,0.794793,0.004362,0.623888,0.837521,-0.013651,0,0,0,1,0,0,0,0,0,0,0,0,0,0,0
19,'2025/06/30 16:14:26:512',2,0.147442,0,0,-0.069732,-0.058794,0.183009,0.354431,0.422963,0,0.009815,-0.009363,0,0,-0.008008,0.636323,0.794793,0.004362,0.623888,0.837521,-0.013651,0,0,0,1,0,0,0,0,0,0,0,0,0,0,0
20,'2025/06/30 16:14:26:521',2,0.147442,0,0,-0.069732,-0.058794,0.183009,0.354431,0.422963,0,0.009815,-0.009363,0,0,-0.008008,0.636323,0.794793,0.004362,0.623888,0.837521,-0.013651,0,0,0,1,0,0,0,0,0,0,0,0,0,0,0
21,'2025/06/30 16:14:26:529',2,0.147442,0,0,-0.069732,-0.058794,0.183009,0.354431,0.422963,0,0.009815,-0.009363,0,0,-0.008008,0.636323,0.794793,0.004362,0.623888,0.837521,-0.013651,0,0,0,1,0,0,0,0,0,0,0,0,0,0,0
22,'2025/06/30 16:14:26:538',2,0.147442,0,0,-0.069732,-0.058794,0.183009,0.354431,0.422963,0,0.009815,-0.009363,0,0,-0.008008,0.636323,0.794793,0.004362,0.623888,0.837521,-0.013651,0,0,0,1,0,0,0,0,0,0,0,0,0,0,0
23,'2025/06/30 16:14:26:546',2,0.147442,0,0,-0.069732,-0.058794,0.183009,0.354431,0.422963,0,0.009815,-0.009363,0,0,-0.008008,0.636323,0.794793,0.004362,0.623888,0.837521,-0.013651,0,0,0,1,0,0,0,0,0,0,0,0,0,0,0
24,'2025/06/30 16:14:26:554',2,0.147442,0,0,-0.069732,-0.058794,0.183009,0.354431,0.422963,0,0.009815,-0.009363,0,0,-0.008008,0.636323,0.794793,0.004362,0.623888,0.837521,-0.013651,0,0,0,1,0,0,0,0,0,0,0,0,0,0,0
25,'2025/06/30 16:14:26:562',2,0.147442,0,0,-0.069732,-0.058794,0.183009,0.354431,0.422963,0,0.009815,-0.009363,0,0,-0.008008,0.636323,0.794793,0.004362,0.623888,0.837521,-0.013651,0,0,0,1,0,0,0,0,0,0,0,0,0,0,0
26,'2025/06/30 16:14:26:571',2,0.147442,0,0,-0.069732,-0.058794,0.183009,0.354431,0.422963,0,0.009815,-0.009363,0,0,-0.008008,0.636323,0.794793,0.004362,0.623888,0.837521,-0.013651,0,0,0,1,0,0,0,0,0,0,0,0,0,0,0
27,'2025/06/30 16:14:26:580',2,0.147442,0,0,-0.069732,-0.058794,0.183009,0.354431,0.422963,0,0.009815,-0.009363,0,0,-0.008008,0.636323,0.794793,0.004362,0.623888,0.837521,-0.013651,0,0,0,1,0,0,0,0,0,0,0,0,0,0,0
28,'2025/06/30 16:14:26:589',2,0.147442,0,0,-0.069732,-0.058794,0.183009,0.354431,0.422963,0,0.009815,-0.009363,0,0,-0.008008,0.636323,0.794793,0.004362,0.623888,0.837521,-0.013651,0,0,0,1,0,0,0,0,0,0,0,0,0,0,0
29,'2025/06/30 16:14:26:596',2,0.147442,0,0,-0.069732,-0.058794,0.183009,0.354431,0.422963,0,0.009815,-0.009363,0,0,-0.008008,0.636323,0.794793,0.004362,0.623888,0.837521,-0.013651,0,0,0,1,0,0,0,0,0,0,0,0,0,0,0
30,'2025/06/30 16:14:29:247',3,0.147442,0.029274,0,-0.069732,-0.058794,0.183009,0.354431,0.422963,0.012937,-0.004264,-0.039732,0,0,-0.008008,0.636323,0.794793,0.004362,0.623888,0.837521,-0.013651,0,0,0,1,0,0,0,0,0,0,0,0,0,0,0
31,'2025/06/30 16:14:29:257',3,0.147442,0.029274,0,-0.069732,-0.058794,0.183009,0.354431,0.422963,0.012937,-0.004264,-0.039732,0,0,-0.008008,0.636323,0.794793,0.004362,0.623888,0.837521,-0.013651,0,0,0,1,0,0,0,0,0,0,0,0,0,0,0
32,'2025/06/30 16:14:29:267',3,0.147442,0.029274,0,-0.069732,-0.058794,0.183009,0.354431,0.422963,0.012937,-0.004264,-0.039732,0,0,-0.008008,0.636323,0.794793,0.004362,0.623888,0.837521,-0.013651,0,0,0,1,0,0,0,0,0,0,0,0,0,0,0
33,'2025/06/30 16:14:29:274',3,0.147442,0.029274,0,-0.069732,-0.058794,0.183009,0.354431,0.422963,0.012937,-0.004264,-0.039732,0,0,-0.008008,0.636323,0.794793,0.004362,0.623888,0.837521,-0.013651,0,0,0,1,0,0,0,0,0,0,0,0,0,0,0
34,'2025/06/30 16:14:29:282',3,0.147442,0.029274,0,-0.069732,-0.058794,0.183009,0.354431,0.422963,0.012937,-0.004264,-0.039732,0,0,-0.008008,0.636323,0.794793,0.004362,0.623888,0.837521,-0.013651,0,0,0,1,0,0,0,0,0,0,0,0,0,0,0
35,'2025/06/30 16:14:29:290',3,0.147442,0.029274,0,-0.069732,-0.058794,0.183009,0.354431,0.422963,0.012937,-0.004264,-0.039732,0,0,-0.008008,0.636323,0.794793,0.004362,0.623888,0.837521,-0.013651,0,0,0,1,0,0,0,0,0,0,0,0,0,0,0
36,'2025/06/30 16:14:29:296',3,0.147442,0.029274,0,-0.069732,-0.058794,0.183009,0.354431,0.422963,0.012937,-0.004264,-0.039732,0,0,-0.008008,0.636323,0.794793,0.004362,0.623888,0.837521,-0.013651,0,0,0,1,0,0,0,0,0,0,0,0,0,0,0
37,'2025/06/30 16:14:29:304',3,0.147442,0.029274,0,-0.069732,-0.058794,0.183009,0.354431,0.422963,0.012937,-0.004264,-0.039732,0,0,-0.008008,0.636323,0.794793,0.004362,0.623888,0.837521,-0.013651,0,0,0,1,0,0,0,0,0,0,0,0,0,0,0
38,'2025/06/30 16:14:29:312',3,0.147442,0.029274,0,-0.069732,-0.058794,0.183009,0.354431,0.422963,0.012937,-0.004264,-0.039732,0,0,-0.008008,0.636323,0.794793,0.004362,0.623888,0.837521,-0.013651,0,0,0,1,0,0,0,0,0,0,0,0,0,0,0
39,'2025/06/30 16:14:29:321',3,0.147442,0.029274,0,-0.069732,-0.058794,0.183009,0.354431,0.422963,0.012937,-0.004264,-0.039732,0,0,-0.008008,0.636323,0.794793,0.004362,0.623888,0.837521,-0.013651,0,0,0,1,0,0,0,0,0,0,0,0,0,0,0
40,'2025/06/30 16:14:29:330',3,0.147442,0.029274,0,-0.069732,-0.058794,0.183009,0.354431,0.422963,0.012937,-0.004264,-0.039732,0,0,-0.008008,0.636323,0.794793,0.004362,0.623888,0.837521,-0.013651,0,0,0,1,0,0,0,0,0,0,0,0,0,0,0
41,'2025/06/30 16:14:29:337',3,0.147442,0.029274,0,-0.069732,-0.058794,0.183009,0.354431,0.422963,0.012937,-0.004264,-0.039732,0,0,-0.008008,0.636323,0.794793,0.004362,0.623888,0.837521,-0.013651,0,0,0,1,0,0,0,0,0,0,0,0,0,0,0
42,'2025/06/30 16:14:29:345',3,0.147442,0.029274,0,-0.069732,-0.058794,0.183009,0.354431,0.422963,0.012937,-0.004264,-0.039732,0,0,-0.008008,0.636323,0.794793,0.004362,0.623888,0.837521,-0.013651,0,0,0,1,0,0,0,0,0,0,0,0,0,0,0
43,'2025/06/30 16:14:29:351',3,0.147442,0.029274,0,-0.069732,-0.058794,0.183009,0.354431,0.422963,0.012937,-0.004264,-0.039732,0,0,-0.008008,0.636323,0.794793,0.004362,0.623888,0.837521,-0.013651,0,0,0,1,0,0,0,0,0,0,0,0,0,0,0
44,'2025/06/30 16:14:29:360',3,0.147442,0.029274,0,-0.069732,-0.058794,0.183009,0.354431,0.422963,0.012937,-0.004264,-0.039732,0,0,-0.008008,0.636323,0.794793,0.004362,0.623888,0.837521,-0.013651,0,0,0,1,0,0,0,0,0,0,0,0,0,0,0
45,'2025/06/30 16:14:31:092',4,0.147442,0.108732,0,-0.069732,-0.058794,0.183009,0.354431,0.422963,0.023909,-0.004264,-0.11971,0,0,-0.008008,0.636323,0.794793,0.004362,0.623888,0.837521,-0.013651,0,0,0,1,0,0,0,0,0,0,0,0,0,0,0
46,'2025/06/30 16:14:31:100',4,0.147442,0.108732,0,-0.069732,-0.058794,0.183009,0.354431,0.422963,0.023909,-0.004264,-0.11971,0,0,-0.008008,0.636323,0.794793,0.004362,0.623888,0.837521,-0.013651,0,0,0,1,0,0,0,0,0,0,0,0,0,0,0
47,'2025/06/30 16:14:31:108',4,0.147442,0.108732,0,-0.069732,-0.058794,0.183009,0.354431,0.422963,0.023909,-0.004264,-0.11971,0,0,-0.008008,0.636323,0.794793,0.004362,0.623888,0.837521,-0.013651,0,0,0,1,0,0,0,0,0,0,0,0,0,0,0
48,'2025/06/30 16:14:31:117',4,0.147442,0.108732,0,-0.069732,-0.058794,0.183009,0.354431,0.422963,0.023909,-0.004264,-0.11971,0,0,-0.008008,0.636323,0.794793,0.004362,0.623888,0.837521,-0.013651,0,0,0,1,0,0,0,0,0,0,0,0,0,0,0
49,'2025/06/30 16:14:31:128',4,0.147442,0.108732,0,-0.069732,-0.058794,0.183009,0.354431,0.422963,0.023909,-0.004264,-0.11971,0,0,-0.008008,0.636323,0.794793,0.004362,0.623888,0.837521,-0.013651,0,0,0,1,0,0,0,0,0,0,0,0,0,0,0
50,'2025/06/30 16:14:31:136',4,0.147442,0.108732,0,-0.069732,-0.058794,0.183009,0.354431,0.422963,0.023909,-0.004264,-0.11971,0,0,-0.008008,0.636323,0.794793,0.004362,0.623888,0.837521,-0.013651,0,0,0,1,0,0,0,0,0,0,0,0,0,0,0
51,'2025/06/30 16:14:31:145',4,0.147442,0.108732,0,-0.069732,-0.058794,0.183009,0.354431,0.422963,0.023909,-0.004264,-0.11971,0,0,-0.008008,0.636323,0.794793,0.004362,0.623888,0.837521,-0.013651,0,0,0,1,0,0,0,0,0,0,0,0,0,0,0
52,'2025/06/30 16:14:31:154',4,0.147442,0.108732,0,-0.069732,-0.058794,0.183009,0.354431,0.422963,0.023909,-0.004264,-0.11971,0,0,-0.008008,0.636323,0.794793,0.004362,0.623888,0.837521,-0.013651,0,0,0,1,0,0,0,0,0,0,0,0,0,0,0
53,'2025/06/30 16:14:31:163',4,0.147442,0.108732,0,-0.069732,-0.058794,0.183009,0.354431,0.422963,0.023909,-0.004264,-0.11971,0,0,-0.008008,0.636323,0.794793,0.004362,0.623888,0.837521,-0.013651,0,0,0,1,0,0,0,0,0,0,0,0,0,0,0
54,'2025/06/30 16:14:31:172',4,0.147442,0.108732,0,-0.069732,-0.058794,0.183009,0.354431,0.422963,0.023909,-0.004264,-0.11971,0,0,-0.008008,0.636323,0.794793,0.004362,0.623888,0.837521,-0.013651,0,0,0,1,0,0,0,0,0,0,0,0,0,0,0
55,'2025/06/30 16:14:31:181',4,0.147442,0.108732,0,-0.069732,-0.058794,0.183009,0.354431,0.422963,0.023909,-0.004264,-0.11971,0,0,-0.008008,0.636323,0.794793,0.004362,0.623888,0.837521,-0.013651,0,0,0,1,0,0,0,0,0,0,0,0,0,0,0
56,'2025/06/30 16:14:31:188',4,0.147442,0.108732,0,-0.069732,-0.058794,0.183009,0.354431,0.422963,0.023909,-0.004264,-0.11971,0,0,-0.008008,0.636323,0.794793,0.004362,0.623888,0.837521,-0.013651,0,0,0,1,0,0,0,0,0,0,0,0,0,0,0
57,'2025/06/30 16:14:31:197',4,0.147442,0.108732,0,-0.069732,-0.058794,0.183009,0.354431,0.422963,0.023909,-0.004264,-0.11971,0,0,-0.008008,0.636323,0.794793,0.004362,0.623888,0.837521,-0.013651,0,0,0,1,0,0,0,0,0,0,0,0,0,0,0
58,'2025/06/30 16:14:31:205',4,0.147442,0.108732,0,-0.069732,-0.058794,0.183009,0.354431,0.422963,0.023909,-0.004264,-0.11971,0,0,-0.008008,0.636323,0.794793,0.004362,0.623888,0.837521,-0.013651,0,0,0,1,0,0,0,0,0,0,0,0,0,0,0
59,'2025/06/30 16:14:34:073',5,0.147442,0.108732,-0.019464,-0.069732,-0.058794,0.183009,0.354431,0.422963,0.023909,-0.004264,-0.11971,-0.002789,0,0.011606,0.636323,0.794793,0.004362,0.623888,0.837521,-0.013651,0,0,0,1,0,0,0,0,0,0,0,0,0,0,0
60,'2025/06/30 16:14:34:080',5,0.147442,0.108732,-0.019464,-0.069732,-0.058794,0.183009,0.354431,0.422963,0.023909,-0.004264,-0.11971,-0.002789,0,0.011606,0.636323,0.794793,0.004362,0.623888,0.837521,-0.013651,0,0,0,1,0,0,0,0,0,0,0,0,0,0,0
61,'2025/06/30 16:14:34:087',5,0.147442,0.108732,-0.019464,-0.069732,-0.058794,0.183009,0.354431,0.422963,0.023909,-0.004264,-0.11971,-0.002789,0,0.011606,0.636323,0.794793,0.004362,0.623888,0.837521,-0.013651,0,0,0,1,0,0,0,0,0,0,0,0,0,0,0
62,'2025/06/30 16:14:34:095',5,0.147442,0.108732,-0.019464,-0.069732,-0.058794,0.183009,0.354431,0.422963,0.023909,-0.004264,-0.11971,-0.002789,0,0.011606,0.636323,0.794793,0.004362,0.623888,0.837521,-0.013651,0,0,0,1,0,0,0,0,0,0,0,0,0,0,0
63,'2025/06/30 16:14:34:102',5,0.147442,0.108732,-0.019464,-0.069732,-0.058794,0.183009,0.354431,0.422963,0.023909,-0.004264,-0.11971,-0.002789,0,0.011606,0.636323,0.794793,0.004362,0.623888,0.837521,-0.013651,0,0,0,1,0,0,0,0,0,0,0,0,0,0,0
64,'2025/06/30 16:14:34:111',5,0.147442,0.108732,-0.019464,-0.069732,-0.058794,0.183009,0.354431,0.422963,0.023909,-0.004264,-0.11971,-0.002789,0,0.011606,0.636323,0.794793,0.004362,0.623888,0.837521,-0.013651,0,0,0,1,0,0,0,0,0,0,0,0,0,0,0
65,'2025/06/30 16:14:34:118',5,0.147442,0.108732,-0.019464,-0.069732,-0.058794,0.183009,0.354431,0.422963,0.023909,-0.004264,-0.11971,-0.002789,0,0.011606,0.636323,0.794793,0.004362,0.623888,0.837521,-0.013651,0,0,0,1,0,0,0,0,0,0,0,0,0,0,0
66,'2025/06/30 16:14:34:127',5,0.147442,0.108732,-0.019464,-0.069732,-0.058794,0.183009,0.354431,0.422963,0.023909,-0.004264,-0.11971,-0.002789,0,0.011606,0.636323,0.794793,0.004362,0.623888,0.837521,-0.013651,0,0,0,1,0,0,0,0,0,0,0,0,0,0,0
67,'2025/06/30 16:14:34:134',5,0.147442,0.108732,-0.019464,-0.069732,-0.058794,0.183009,0.354431,0.422963,0.023909,-0.004264,-0.11971,-0.002789,0,0.011606,0.636323,0.794793,0.004362,0.623888,0.837521,-0.013651,0,0,0,1,0,0,0,0,0,0,0,0,0,0,0
68,'2025/06/30 16:14:34:141',5,0.147442,0.108732,-0.019464,-0.069732,-0.058794,0.183009,0.354431,0.422963,0.023909,-0.004264,-0.11971,-0.002789,0,0.011606,0.636323,0.794793,0.004362,0.623888,0.837521,-0.013651,0,0,0,1,0,0,0,0,0,0,0,0,0,0,0
69,'2025/06/30 16:14:34:146',5,0.147442,0.108732,-0.019464,-0.069732,-0.058794,0.183009,0.354431,0.422963,0.023909,-0.004264,-0.11971,-0.002789,0,0.011606,0.636323,0.794793,0.004362,0.623888,0.837521,-0.013651,0,0,0,1,0,0,0,0,0,0,0,0,0,0,0
70,'2025/06/30 16:14:34:155',5,0.147442,0.108732,-0.019464,-0.069732,-0.058794,0.183009,0.354431,0.422963,0.023909,-0.004264,-0.11971,-0.002789,0,0.011606,0.636323,0.794793,0.004362,0.623888,0.837521,-0.013651,0,0,0,1,0,0,0,0,0,0,0,0,0,0,0
71,'2025/06/30 16:14:34:164',5,0.147442,0.108732,-0.019464,-0.069732,-0.058794,0.183009,0.354431,0.422963,0.023909,-0.004264,-0.11971,-0.002789,0,0.011606,0.636323,0.794793,0.004362,0.623888,0.837521,-0.013651,0,0,0,1,0,0,0,0,0,0,0,0,0,0,0
72,'2025/06/30 16:14:34:171',5,0.147442,0.108732,-0.019464,-0.069732,-0.058794,0.183009,0.354431,0.422963,0.023909,-0.004264,-0.11971,-0.002789,0,0.011606,0.636323,0.794793,0.004362,0.623888,0.837521,-0.013651,0,0,0,1,0,0,0,0,0,0,0,0,0,0,0
73,'2025/06/30 16:14:34:178',5,0.147442,0.108732,-0.019464,-0.069732,-0.058794,0.183009,0.354431,0.422963,0.023909,-0.004264,-0.11971,-0.002789,0,0.011606,0.636323,0.794793,0.004362,0.623888,0.837521,-0.013651,0,0,0,1,0,0,0,0,0,0,0,0,0,0,0
74,'2025/06/30 16:14:37:957',6,0.147442,0.169027,-0.019464,-0.069732,-0.058794,0.183009,0.354431,0.422963,0.032616,-0.004264,-0.180384,-0.002789,0,0.011606,0.636323,0.794793,0.004362,0.623888,0.837521,-0.013651,0,0,0,1,0,0,0,0,0,0,0,0,0,0,0
75,'2025/06/30 16:14:37:964',6,0.147442,0.169027,-0.019464,-0.069732,-0.058794,0.183009,0.354431,0.422963,0.032616,-0.004264,-0.180384,-0.002789,0,0.011606,0.636323,0.794793,0.004362,0.623888,0.837521,-0.013651,0,0,0,1,0,0,0,0,0,0,0,0,0,0,0
76,'2025/06/30 16:14:37:971',6,0.147442,0.169027,-0.019464,-0.069732,-0.058794,0.183009,0.354431,0.422963,0.032616,-0.004264,-0.180384,-0.002789,0,0.011606,0.636323,0.794793,0.004362,0.623888,0.837521,-0.013651,0,0,0,1,0,0,0,0,0,0,0,0,0,0,0
77,'2025/06/30 16:14:37:977',6,0.147442,0.169027,-0.019464,-0.069732,-0.058794,0.183009,0.354431,0.422963,0.032616,-0.004264,-0.180384,-0.002789,0,0.011606,0.636323,0.794793,0.004362,0.623888,0.837521,-0.013651,0,0,0,1,0,0,0,0,0,0,0,0,0,0,0
78,'2025/06/30 16:14:37:984',6,0.147442,0.169027,-0.019464,-0.069732,-0.058794,0.183009,0.354431,0.422963,0.032616,-0.004264,-0.180384,-0.002789,0,0.011606,0.636323,0.794793,0.004362,0.623888,0.837521,-0.013651,0,0,0,1,0,0,0,0,0,0,0,0,0,0,0
79,'2025/06/30 16:14:37:992',6,0.147442,0.169027,-0.019464,-0.069732,-0.058794,0.183009,0.354431,0.422963,0.032616,-0.004264,-0.180384,-0.002789,0,0.011606,0.636323,0.794793,0.004362,0.623888,0.837521,-0.013651,0,0,0,1,0,0,0,0,0,0,0,0,0,0,0
80,'2025/06/30 16:14:38:001',6,0.147442,0.169027,-0.019464,-0.069732,-0.058794,0.183009,0.354431,0.422963,0.032616,-0.004264,-0.180384,-0.002789,0,0.011606,0.636323,0.794793,0.004362,0.623888,0.837521,-0.013651,0,0,0,1,0,0,0,0,0,0,0,0,0,0,0
81,'2025/06/30 16:14:38:011',6,0.147442,0.169027,-0.019464,-0.069732,-0.058794,0.183009,0.354431,0.422963,0.032616,-0.004264,-0.180384,-0.002789,0,0.011606,0.636323,0.794793,0.004362,0.623888,0.837521,-0.013651,0,0,0,1,0,0,0,0,0,0,0,0,0,0,0
82,'2025/06/30 16:14:38:018',6,0.147442,0.169027,-0.019464,-0.069732,-0.058794,0.183009,0.354431,0.422963,0.032616,-0.004264,-0.180384,-0.002789,0,0.011606,0.636323,0.794793,0.004362,0.623888,0.837521,-0.013651,0,0,0,1,0,0,0,0,0,0,0,0,0,0,0
83,'2025/06/30 16:14:38:027',6,0.147442,0.169027,-0.019464,-0.069732,-0.058794,0.183009,0.354431,0.422963,0.032616,-0.004264,-0.180384,-0.002789,0,0.011606,0.636323,0.794793,0.004362,0.623888,0.837521,-0.013651,0,0,0,1,0,0,0,0,0,0,0,0,0,0,0
84,'2025/06/30 16:14:38:033',6,0.147442,0.169027,-0.019464,-0.069732,-0.058794,0.183009,0.354431,0.422963,0.032616,-0.004264,-0.180384,-0.002789,0,0.011606,0.636323,0.794793,0.004362,0.623888,0.837521,-0.013651,0,0,0,1,0,0,0,0,0,0,0,0,0,0,0
85,'2025/06/30 16:14:38:041',6,0.147442,0.169027,-0.019464,-0.069732,-0.058794,0.183009,0.354431,0.422963,0.032616,-0.004264,-0.180384,-0.002789,0,0.011606,0.636323,0.794793,0.004362,0.623888,0.837521,-0.013651,0,0,0,1,0,0,0,0,0,0,0,0,0,0,0
86,'2025/06/30 16:14:38:049',6,0.147442,0.169027,-0.019464,-0.069732,-0.058794,0.183009,0.354431,0.422963,0.032616,-0.004264,-0.180384,-0.002789,0,0.011606,0.636323,0.794793,0.004362,0.623888,0.837521,-0.013651,0,0,0,1,0,0,0,0,0,0,0,0,0,0,0
87,'2025/06/30 16:14:38:058',6,0.147442,0.169027,-0.019464,-0.069732,-0.058794,0.183009,0.354431,0.422963,0.032616,-0.004264,-0.180384,-0.002789,0,0.011606,0.636323,0.794793,0.004362,0.623888,0.837521,-0.013651,0,0,0,1,0,0,0,0,0,0,0,0,0,0,0
88,'2025/06/30 16:14:38:067',6,0.147442,0.169027,-0.019464,-0.069732,-0.058794,0.183009,0.354431,0.422963,0.032616,-0.004264,-0.180384,-0.002789,0,0.011606,0.636323,0.794793,0.004362,0.623888,0.837521,-0.013651,0,0,0,1,0,0,0,0,0,0,0,0,0,0,0
89,'2025/06/30 16:14:42:295',7,0.147442,0.169027,-0.073593,-0.069732,-0.058794,0.183009,0.354431,0.422963,0.032616,-0.004264,-0.180384,-0.010545,0,0.066168,0.636323,0.794793,0.004362,0.623888,0.837521,-0.013651,0,0,0,1,0,0,0,0,0,0,0,0,0,0,0
90,'2025/06/30 16:14:42:303',7,0.147442,0.169027,-0.073593,-0.069732,-0.058794,0.183009,0.354431,0.422963,0.032616,-0.004264,-0.180384,-0.010545,0,0.066168,0.636323,0.794793,0.004362,0.623888,0.837521,-0.013651,0,0,0,1,0,0,0,0,0,0,0,0,0,0,0
91,'2025/06/30 16:14:42:311',7,0.147442,0.169027,-0.073593,-0.069732,-0.058794,0.183009,0.354431,0.422963,0.032616,-0.004264,-0.180384,-0.010545,0,0.066168,0.636323,0.794793,0.004362,0.623888,0.837521,-0.013651,0,0,0,1,0,0,0,0,0,0,0,0,0,0,0
92,'2025/06/30 16:14:42:318',7,0.147442,0.169027,-0.073593,-0.069732,-0.058794,0.183009,0.354431,0.422963,0.032616,-0.004264,-0.180384,-0.010545,0,0.066168,0.636323,0.794793,0.004362,0.623888,0.837521,-0.013651,0,0,0,1,0,0,0,0,0,0,0,0,0,0,0
93,'2025/06/30 16:14:42:328',7,0.147442,0.169027,-0.073593,-0.069732,-0.058794,0.183009,0.354431,0.422963,0.032616,-0.004264,-0.180384,-0.010545,0,0.066168,0.636323,0.794793,0.004362,0.623888,0.837521,-0.013651,0,0,0,1,0,0,0,0,0,0,0,0,0,0,0
94,'2025/06/30 16:14:42:336',7,0.147442,0.169027,-0.073593,-0.069732,-0.058794,0.183009,0.354431,0.422963,0.032616,-0.004264,-0.180384,-0.010545,0,0.066168,0.636323,0.794793,0.004362,0.623888,0.837521,-0.013651,0,0,0,1,0,0,0,0,0,0,0,0,0,0,0
95,'2025/06/30 16:14:42:344',7,0.147442,0.169027,-0.073593,-0.069732,-0.058794,0.183009,0.354431,0.422963,0.032616,-0.004264,-0.180384,-0.010545,0,0.066168,0.636323,0.794793,0.004362,0.623888,0.837521,-0.013651,0,0,0,1,0,0,0,0,0,0,0,0,0,0,0
96,'2025/06/30 16:14:42:352',7,0.147442,0.169027,-0.073593,-0.069732,-0.058794,0.183009,0.354431,0.422963,0.032616,-0.004264,-0.180384,-0.010545,0,0.066168,0.636323,0.794793,0.004362,0.623888,0.837521,-0.013651,0,0,0,1,0,0,0,0,0,0,0,0,0,0,0
97,'2025/06/30 16:14:42:362',7,0.147442,0.169027,-0.073593,-0.069732,-0.058794,0.183009,0.354431,0.422963,0.032616,-0.004264,-0.180384,-0.010545,0,0.066168,0.636323,0.794793,0.004362,0.623888,0.837521,-0.013651,0,0,0,1,0,0,0,0,0,0,0,0,0,0,0
98,'2025/06/30 16:14:42:370',7,0.147442,0.169027,-0.073593,-0.069732,-0.058794,0.183009,0.354431,0.422963,0.032616,-0.004264,-0.180384,-0.010545,0,0.066168,0.636323,0.794793,0.004362,0.623888,0.837521,-0.013651,0,0,0,1,0,0,0,0,0,0,0,0,0,0,0
99,'2025/06/30 16:14:42:378',7,0.147442,0.169027,-0.073593,-0.069732,-0.058794,0.183009,0.354431,0.422963,0.032616,-0.004264,-0.180384,-0.010545,0,0.066168,0.636323,0.794793,0.004362,0.623888,0.837521,-0.013651,0,0,0,1,0,0,0,0,0,0,0,0,0,0,0
100,'2025/06/30 16:14:42:385',7,0.147442,0.169027,-0.073593,-0.069732,-0.058794,0.183009,0.354431,0.422963,0.032616,-0.004264,-0.180384,-0.010545,0,0.066168,0.636323,0.794793,0.004362,0.623888,0.837521,-0.013651,0,0,0,1,0,0,0,0,0,0,0,0,0,0,0
101,'2025/06/30 16:14:42:395',7,0.147442,0.169027,-0.073593,-0.069732,-0.058794,0.183009,0.354431,0.422963,0.032616,-0.004264,-0.180384,-0.010545,0,0.066168,0.636323,0.794793,0.004362,0.623888,0.837521,-0.013651,0,0,0,1,0,0,0,0,0,0,0,0,0,0,0
102,'2025/06/30 16:14:42:403',7,0.147442,0.169027,-0.073593,-0.069732,-0.058794,0.183009,0.354431,0.422963,0.032616,-0.004264,-0.180384,-0.010545,0,0.066168,0.636323,0.794793,0.004362,0.623888,0.837521,-0.013651,0,0,0,1,0,0,0,0,0,0,0,0,0,0,0
103,'2025/06/30 16:14:42:412',7,0.147442,0.169027,-0.073593,-0.069732,-0.058794,0.183009,0.354431,0.422963,0.032616,-0.004264,-0.180384,-0.010545,0,0.066168,0.636323,0.794793,0.004362,0.623888,0.837521,-0.013651,0,0,0,1,0,0,0,0,0,0,0,0,0,0,0
104,'2025/06/30 16:14:42:420',7,0.147442,0.169027,-0.073593,-0.069732,-0.058794,0.183009,0.354431,0.422963,0.032616,-0.004264,-0.180384,-0.010545,0,0.066168,0.636323,0.794793,0.004362,0.623888,0.837521,-0.013651,0,0,0,1,0,0,0,0,0,0,0,0,0,0,0
105,'2025/06/30 16:14:50:531',8,0.16379,0.119346,-0.073593,-0.069732,-0.058794,0.207932,0.425804,0.516805,0.025244,-0.004264,-0.130379,-0.010545,0,0.066168,0.636323,0.794793,0.004362,0.623888,0.837521,-0.013651,0,0,0,1,0,0,0,0,0,0,0,0,0,0,0
106,'2025/06/30 16:14:50:541',8,0.16379,0.119346,-0.073593,-0.069732,-0.058794,0.207932,0.425804,0.516805,0.025244,-0.004264,-0.130379,-0.010545,0,0.066168,0.636323,0.794793,0.004362,0.623888,0.837521,-0.013651,0,0,0,1,0,0,0,0,0,0,0,0,0,0,0
107,'2025/06/30 16:14:50:548',8,0.16379,0.119346,-0.073593,-0.069732,-0.058794,0.207932,0.425804,0.516805,0.025244,-0.004264,-0.130379,-0.010545,0,0.066168,0.636323,0.794793,0.004362,0.623888,0.837521,-0.013651,0,0,0,1,0,0,0,0,0,0,0,0,0,0,0
108,'2025/06/30 16:14:50:557',8,0.16379,0.119346,-0.073593,-0.069732,-0.058794,0.207932,0.425804,0.516805,0.025244,-0.004264,-0.130379,-0.010545,0,0.066168,0.636323,0.794793,0.004362,0.623888,0.837521,-0.013651,0,0,0,1,0,0,0,0,0,0,0,0,0,0,0
109,'2025/06/30 16:14:50:566',8,0.16379,0.119346,-0.073593,-0.069732,-0.058794,0.207932,0.425804,0.516805,0.025244,-0.004264,-0.130379,-0.010545,0,0.066168,0.636323,0.794793,0.004362,0.623888,0.837521,-0.013651,0,0,0,1,0,0,0,0,0,0,0,0,0,0,0
110,'2025/06/30 16:14:50:573',8,0.16379,0.119346,-0.073593,-0.069732,-0.058794,0.207932,0.425804,0.516805,0.025244,-0.004264,-0.130379,-0.010545,0,0.066168,0.636323,0.794793,0.004362,0.623888,0.837521,-0.013651,0,0,0,1,0,0,0,0,0,0,0,0,0,0,0
111,'2025/06/30 16:14:50:582',8,0.16379,0.119346,-0.073593,-0.069732,-0.058794,0.207932,0.425804,0.516805,0.025244,-0.004264,-0.130379,-0.010545,0,0.066168,0.636323,0.794793,0.004362,0.623888,0.837521,-0.013651,0,0,0,1,0,0,0,0,0,0,0,0,0,0,0
112,'2025/06/30 16:14:50:590',8,0.16379,0.119346,-0.073593,-0.069732,-0.058794,0.207932,0.425804,0.516805,0.025244,-0.004264,-0.130379,-0.010545,0,0.066168,0.636323,0.794793,0.004362,0.623888,0.837521,-0.013651,0,0,0,1,0,0,0,0,0,0,0,0,0,0,0
113,'2025/06/30 16:14:50:598',8,0.16379,0.119346,-0.073593,-0.069732,-0.058794,0.207932,0.425804,0.516805,0.025244,-0.004264,-0.130379,-0.010545,0,0.066168,0.636323,0.794793,0.004362,0.623888,0.837521,-0.013651,0,0,0,1,0,0,0,0,0,0,0,0,0,0,0
114,'2025/06/30 16:14:50:606',8,0.16379,0.119346,-0.073593,-0.069732,-0.058794,0.207932,0.425804,0.516805,0.025244,-0.004264,-0.130379,-0.010545,0,0.066168,0.636323,0.794793,0.004362,0.623888,0.837521,-0.013651,0,0,0,1,0,0,0,0,0,0,0,0,0,0,0
115,'2025/06/30 16:14:50:612',8,0.16379,0.119346,-0.073593,-0.069732,-0.058794,0.207932,0.425804,0.516805,0.025244,-0.004264,-0.130379,-0.010545,0,0.066168,0.636323,0.794793,0.004362,0.623888,0.837521,-0.013651,0,0,0,1,0,0,0,0,0,0,0,0,0,0,0
116,'2025/06/30 16:14:50:622',8,0.16379,0.119346,-0.073593,-0.069732,-0.058794,0.207932,0.425804,0.516805,0.025244,-0.004264,-0.130379,-0.010545,0,0.066168,0.636323,0.794793,0.004362,0.623888,0.837521,-0.013651,0,0,0,1,0,0,0,0,0,0,0,0,0,0,0
117,'2025/06/30 16:14:50:629',8,0.16379,0.119346,-0.073593,-0.069732,-0.058794,0.207932,0.425804,0.516805,0.025244,-0.004264,-0.130379,-0.010545,0,0.066168,0.636323,0.794793,0.004362,0.623888,0.837521,-0.013651,0,0,0,1,0,0,0,0,0,0,0,0,0,0,0
118,'2025/06/30 16:14:50:637',8,0.16379,0.119346,-0.073593,-0.069732,-0.058794,0.207932,0.425804,0.516805,0.025244,-0.004264,-0.130379,-0.010545,0,0.066168,0.636323,0.794793,0.004362,0.623888,0.837521,-0.013651,0,0,0,1,0,0,0,0,0,0,0,0,0,0,0
119,'2025/06/30 16:14:50:645',8,0.16379,0.119346,-0.073593,-0.069732,-0.058794,0.207932,0.425804,0.516805,0.025244,-0.004264,-0.130379,-0.010545,0,0.066168,0.636323,0.794793,0.004362,0.623888,0.837521,-0.013651,0,0,0,1,0,0,0,0,0,0,0,0,0,0,0
120,'2025/06/30 16:14:50:651',8,0.16379,0.119346,-0.073593,-0.069732,-0.058794,0.207932,0.425804,0.516805,0.025244,-0.004264,-0.130379,-0.010545,0,0.066168,0.636323,0.794793,0.004362,0.623888,0.837521,-0.013651,0,0,0,1,0,0,0,0,0,0,0,0,0,0,0
121,'2025/06/30 16:14:50:658',8,0.16379,0.119346,-0.073593,-0.069732,-0.058794,0.207932,0.425804,0.516805,0.025244,-0.004264,-0.130379,-0.010545,0,0.066168,0.636323,0.794793,0.004362,0.623888,0.837521,-0.013651,0,0,0,1,0,0,0,0,0,0,0,0,0,0,0
122,'2025/06/30 16:14:52:996',9,0.16379,0.119346,-0.036823,-0.069732,-0.058794,0.207932,0.425804,0.516805,0.025244,-0.004264,-0.130379,-0.005276,0,0.029101,0.636323,0.794793,0.004362,0.623888,0.837521,-0.013651,0,0,0,1,0,0,0,0,0,0,0,0,0,0,0
123,'2025/06/30 16:14:53:004',9,0.16379,0.119346,-0.036823,-0.069732,-0.058794,0.207932,0.425804,0.516805,0.025244,-0.004264,-0.130379,-0.005276,0,0.029101,0.636323,0.794793,0.004362,0.623888,0.837521,-0.013651,0,0,0,1,0,0,0,0,0,0,0,0,0,0,0
124,'2025/06/30 16:14:53:012',9,0.16379,0.119346,-0.036823,-0.069732,-0.058794,0.207932,0.425804,0.516805,0.025244,-0.004264,-0.130379,-0.005276,0,0.029101,0.636323,0.794793,0.004362,0.623888,0.837521,-0.013651,0,0,0,1,0,0,0,0,0,0,0,0,0,0,0
125,'2025/06/30 16:14:53:020',9,0.16379,0.119346,-0.036823,-0.069732,-0.058794,0.207932,0.425804,0.516805,0.025244,-0.004264,-0.130379,-0.005276,0,0.029101,0.636323,0.794793,0.004362,0.623888,0.837521,-0.013651,0,0,0,1,0,0,0,0,0,0,0,0,0,0,0
126,'2025/06/30 16:14:53:028',9,0.16379,0.119346,-0.036823,-0.069732,-0.058794,0.207932,0.425804,0.516805,0.025244,-0.004264,-0.130379,-0.005276,0,0.029101,0.636323,0.794793,0.004362,0.623888,0.837521,-0.013651,0,0,0,1,0,0,0,0,0,0,0,0,0,0,0
127,'2025/06/30 16:14:53:035',9,0.16379,0.119346,-0.036823,-0.069732,-0.058794,0.207932,0.425804,0.516805,0.025244,-0.004264,-0.130379,-0.005276,0,0.029101,0.636323,0.794793,0.004362,0.623888,0.837521,-0.013651,0,0,0,1,0,0,0,0,0,0,0,0,0,0,0
128,'2025/06/30 16:14:53:044',9,0.16379,0.119346,-0.036823,-0.069732,-0.058794,0.207932,0.425804,0.516805,0.025244,-0.004264,-0.130379,-0.005276,0,0.029101,0.636323,0.794793,0.004362,0.623888,0.837521,-0.013651,0,0,0,1,0,0,0,0,0,0,0,0,0,0,0
129,'2025/06/30 16:14:53:051',9,0.16379,0.119346,-0.036823,-0.069732,-0.058794,0.207932,0.425804,0.516805,0.025244,-0.004264,-0.130379,-0.005276,0,0.029101,0.636323,0.794793,0.004362,0.623888,0.837521,-0.013651,0,0,0,1,0,0,0,0,0,0,0,0,0,0,0
130,'2025/06/30 16:14:53:061',9,0.16379,0.119346,-0.036823,-0.069732,-0.058794,0.207932,0.425804,0.516805,0.025244,-0.004264,-0.130379,-0.005276,0,0.029101,0.636323,0.794793,0.004362,0.623888,0.837521,-0.013651,0,0,0,1,0,0,0,0,0,0,0,0,0,0,0
131,'2025/06/30 16:14:53:068',9,0.16379,0.119346,-0.036823,-0.069732,-0.058794,0.207932,0.425804,0.516805,0.025244,-0.004264,-0.130379,-0.005276,0,0.029101,0.636323,0.794793,0.004362,0.623888,0.837521,-0.013651,0,0,0,1,0,0,0,0,0,0,0,0,0,0,0
132,'2025/06/30 16:14:53:077',9,0.16379,0.119346,-0.036823,-0.069732,-0.058794,0.207932,0.425804,0.516805,0.025244,-0.004264,-0.130379,-0.005276,0,0.029101,0.636323,0.794793,0.004362,0.623888,0.837521,-0.013651,0,0,0,1,0,0,0,0,0,0,0,0,0,0,0
133,'2025/06/30 16:14:53:085',9,0.16379,0.119346,-0.036823,-0.069732,-0.058794,0.207932,0.425804,0.516805,0.025244,-0.004264,-0.130379,-0.005276,0,0.029101,0.636323,0.794793,0.004362,0.623888,0.837521,-0.013651,0,0,0,1,0,0,0,0,0,0,0,0,0,0,0
134,'2025/06/30 16:14:53:093',9,0.16379,0.119346,-0.036823,-0.069732,-0.058794,0.207932,0.425804,0.516805,0.025244,-0.004264,-0.130379,-0.005276,0,0.029101,0.636323,0.794793,0.004362,0.623888,0.837521,-0.013651,0,0,0,1,0,0,0,0,0,0,0,0,0,0,0
135,'2025/06/30 16:14:53:101',9,0.16379,0.119346,-0.036823,-0.069732,-0.058794,0.207932,0.425804,0.516805,0.025244,-0.004264,-0.130379,-0.005276,0,0.029101,0.636323,0.794793,0.004362,0.623888,0.837521,-0.013651,0,0,0,1,0,0,0,0,0,0,0,0,0,0,0
136,'2025/06/30 16:14:53:109',9,0.16379,0.119346,-0.036823,-0.069732,-0.058794,0.207932,0.425804,0.516805,0.025244,-0.004264,-0.130379,-0.005276,0,0.029101,0.636323,0.794793,0.004362,0.623888,0.837521,-0.013651,0,0,0,1,0,0,0,0,0,0,0,0,0,0,0
137,'2025/06/30 16:14:59:450',10,0.16379,0.119346,-0.036823,-0.103051,-0.073513,0.207932,0.425804,0.516805,0.025244,-0.004264,-0.130379,-0.005276,0,0.029101,0.747627,0.689494,0.033186,0.711874,0.758329,-0.001164,0,0,0,1,0,0,0,0,0,0,0,0,0,0,0
138,'2025/06/30 16:14:59:459',10,0.16379,0.119346,-0.036823,-0.103051,-0.073513,0.207932,0.425804,0.516805,0.025244,-0.004264,-0.130379,-0.005276,0,0.029101,0.747627,0.689494,0.033186,0.711874,0.758329,-0.001164,0,0,0,1,0,0,0,0,0,0,0,0,0,0,0
139,'2025/06/30 16:14:59:466',10,0.16379,0.119346,-0.036823,-0.103051,-0.073513,0.207932,0.425804,0.516805,0.025244,-0.004264,-0.130379,-0.005276,0,0.029101,0.747627,0.689494,0.033186,0.711874,0.758329,-0.001164,0,0,0,1,0,0,0,0,0,0,0,0,0,0,0
140,'2025/06/30 16:14:59:474',10,0.16379,0.119346,-0.036823,-0.103051,-0.073513,0.207932,0.425804,0.516805,0.025244,-0.004264,-0.130379,-0.005276,0,0.029101,0.747627,0.689494,0.033186,0.711874,0.758329,-0.001164,0,0,0,1,0,0,0,0,0,0,0,0,0,0,0
141,'2025/06/30 16:14:59:481',10,0.16379,0.119346,-0.036823,-0.103051,-0.073513,0.207932,0.425804,0.516805,0.025244,-0.004264,-0.130379,-0.005276,0,0.029101,0.747627,0.689494,0.033186,0.711874,0.758329,-0.001164,0,0,0,1,0,0,0,0,0,0,0,0,0,0,0
142,'2025/06/30 16:14:59:489',10,0.16379,0.119346,-0.036823,-0.103051,-0.073513,0.207932,0.425804,0.516805,0.025244,-0.004264,-0.130379,-0.005276,0,0.029101,0.747627,0.689494,0.033186,0.711874,0.758329,-0.001164,0,0,0,1,0,0,0,0,0,0,0,0,0,0,0
143,'2025/06/30 16:14:59:496',10,0.16379,0.119346,-0.036823,-0.103051,-0.073513,0.207932,0.425804,0.516805,0.025244,-0.004264,-0.130379,-0.005276,0,0.029101,0.747627,0.689494,0.033186,0.711874,0.758329,-0.001164,0,0,0,1,0,0,0,0,0,0,0,0,0,0,0
144,'2025/06/30 16:14:59:504',10,0.16379,0.119346,-0.036823,-0.103051,-0.073513,0.207932,0.425804,0.516805,0.025244,-0.004264,-0.130379,-0.005276,0,0.029101,0.747627,0.689494,0.033186,0.711874,0.758329,-0.001164,0,0,0,1,0,0,0,0,0,0,0,0,0,0,0
145,'2025/06/30 16:14:59:513',10,0.16379,0.119346,-0.036823,-0.103051,-0.073513,0.207932,0.425804,0.516805,0.025244,-0.004264,-0.130379,-0.005276,0,0.029101,0.747627,0.689494,0.033186,0.711874,0.758329,-0.001164,0,0,0,1,0,0,0,0,0,0,0,0,0,0,0
146,'2025/06/30 16:14:59:522',10,0.16379,0.119346,-0.036823,-0.103051,-0.073513,0.207932,0.425804,0.516805,0.025244,-0.004264,-0.130379,-0.005276,0,0.029101,0.747627,0.689494,0.033186,0.711874,0.758329,-0.001164,0,0,0,1,0,0,0,0,0,0,0,0,0,0,0
147,'2025/06/30 16:14:59:530',10,0.16379,0.119346,-0.036823,-0.103051,-0.073513,0.207932,0.425804,0.516805,0.025244,-0.004264,-0.130379,-0.005276,0,0.029101,0.747627,0.689494,0.033186,0.711874,0.758329,-0.001164,0,0,0,1,0,0,0,0,0,0,0,0,0,0,0
148,'2025/06/30 16:14:59:540',10,0.16379,0.119346,-0.036823,-0.103051,-0.073513,0.207932,0.425804,0.516805,0.025244,-0.004264,-0.130379,-0.005276,0,0.029101,0.747627,0.689494,0.033186,0.711874,0.758329,-0.001164,0,0,0,1,0,0,0,0,0,0,0,0,0,0,0
149,'2025/06/30 16:14:59:548',10,0.16379,0.119346,-0.036823,-0.103051,-0.073513,0.207932,0.425804,0.516805,0.025244,-0.004264,-0.130379,-0.005276,0,0.029101,0.747627,0.689494,0.033186,0.711874,0.758329,-0.001164,0,0,0,1,0,0,0,0,0,0,0,0,0,0,0
150,'2025/06/30 16:14:59:558',10,0.16379,0.119346,-0.036823,-0.103051,-0.073513,0.207932,0.425804,0.516805,0.025244,-0.004264,-0.130379,-0.005276,0,0.029101,0.747627,0.689494,0.033186,0.711874,0.758329,-0.001164,0,0,0,1,0,0,0,0,0,0,0,0,0,0,0
151,'2025/06/30 16:14:59:565',10,0.16379,0.119346,-0.036823,-0.103051,-0.073513,0.207932,0.425804,0.516805,0.025244,-0.004264,-0.130379,-0.005276,0,0.029101,0.747627,0.689494,0.033186,0.711874,0.758329,-0.001164,0,0,0,1,0,0,0,0,0,0,0,0,0,0,0
152,'2025/06/30 16:14:59:574',10,0.16379,0.119346,-0.036823,-0.103051,-0.073513,0.207932,0.425804,0.516805,0.025244,-0.004264,-0.130379,-0.005276,0,0.029101,0.747627,0.689494,0.033186,0.711874,0.758329,-0.001164,0,0,0,1,0,0,0,0,0,0,0,0,0,0,0
153,'2025/06/30 16:14:59:582',10,0.16379,0.119346,-0.036823,-0.103051,-0.073513,0.207932,0.425804,0.516805,0.025244,-0.004264,-0.130379,-0.005276,0,0.029101,0.747627,0.689494,0.033186,0.711874,0.758329,-0.001164,0,0,0,1,0,0,0,0,0,0,0,0,0,0,0
154,'2025/06/30 16:15:03:608',11,0.16379,0.160135,-0.036823,-0.103051,-0.073513,0.207932,0.425804,0.516805,0.030927,-0.004264,-0.171409,-0.005276,0,0.029101,0.747627,0.689494,0.033186,0.711874,0.758329,-0.001164,0,0,0,1,0,0,0,0,0,0,0,0,0,0,0
155,'2025/06/30 16:15:03:617',11,0.16379,0.160135,-0.036823,-0.103051,-0.073513,0.207932,0.425804,0.516805,0.030927,-0.004264,-0.171409,-0.005276,0,0.029101,0.747627,0.689494,0.033186,0.711874,0.758329,-0.001164,0,0,0,1,0,0,0,0,0,0,0,0,0,0,0
156,'2025/06/30 16:15:03:624',11,0.16379,0.160135,-0.036823,-0.103051,-0.073513,0.207932,0.425804,0.516805,0.030927,-0.004264,-0.171409,-0.005276,0,0.029101,0.747627,0.689494,0.033186,0.711874,0.758329,-0.001164,0,0,0,1,0,0,0,0,0,0,0,0,0,0,0
157,'2025/06/30 16:15:03:631',11,0.16379,0.160135,-0.036823,-0.103051,-0.073513,0.207932,0.425804,0.516805,0.030927,-0.004264,-0.171409,-0.005276,0,0.029101,0.747627,0.689494,0.033186,0.711874,0.758329,-0.001164,0,0,0,1,0,0,0,0,0,0,0,0,0,0,0
158,'2025/06/30 16:15:03:637',11,0.16379,0.160135,-0.036823,-0.103051,-0.073513,0.207932,0.425804,0.516805,0.030927,-0.004264,-0.171409,-0.005276,0,0.029101,0.747627,0.689494,0.033186,0.711874,0.758329,-0.001164,0,0,0,1,0,0,0,0,0,0,0,0,0,0,0
159,'2025/06/30 16:15:03:645',11,0.16379,0.160135,-0.036823,-0.103051,-0.073513,0.207932,0.425804,0.516805,0.030927,-0.004264,-0.171409,-0.005276,0,0.029101,0.747627,0.689494,0.033186,0.711874,0.758329,-0.001164,0,0,0,1,0,0,0,0,0,0,0,0,0,0,0
160,'2025/06/30 16:15:03:655',11,0.16379,0.160135,-0.036823,-0.103051,-0.073513,0.207932,0.425804,0.516805,0.030927,-0.004264,-0.171409,-0.005276,0,0.029101,0.747627,0.689494,0.033186,0.711874,0.758329,-0.001164,0,0,0,1,0,0,0,0,0,0,0,0,0,0,0
161,'2025/06/30 16:15:03:663',11,0.16379,0.160135,-0.036823,-0.103051,-0.073513,0.207932,0.425804,0.516805,0.030927,-0.004264,-0.171409,-0.005276,0,0.029101,0.747627,0.689494,0.033186,0.711874,0.758329,-0.001164,0,0,0,1,0,0,0,0,0,0,0,0,0,0,0
162,'2025/06/30 16:15:03:671',11,0.16379,0.160135,-0.036823,-0.103051,-0.073513,0.207932,0.425804,0.516805,0.030927,-0.004264,-0.171409,-0.005276,0,0.029101,0.747627,0.689494,0.033186,0.711874,0.758329,-0.001164,0,0,0,1,0,0,0,0,0,0,0,0,0,0,0
163,'2025/06/30 16:15:03:680',11,0.16379,0.160135,-0.036823,-0.103051,-0.073513,0.207932,0.425804,0.516805,0.030927,-0.004264,-0.171409,-0.005276,0,0.029101,0.747627,0.689494,0.033186,0.711874,0.758329,-0.001164,0,0,0,1,0,0,0,0,0,0,0,0,0,0,0
164,'2025/06/30 16:15:03:687',11,0.16379,0.160135,-0.036823,-0.103051,-0.073513,0.207932,0.425804,0.516805,0.030927,-0.004264,-0.171409,-0.005276,0,0.029101,0.747627,0.689494,0.033186,0.711874,0.758329,-0.001164,0,0,0,1,0,0,0,0,0,0,0,0,0,0,0
165,'2025/06/30 16:15:03:695',11,0.16379,0.160135,-0.036823,-0.103051,-0.073513,0.207932,0.425804,0.516805,0.030927,-0.004264,-0.171409,-0.005276,0,0.029101,0.747627,0.689494,0.033186,0.711874,0.758329,-0.001164,0,0,0,1,0,0,0,0,0,0,0,0,0,0,0
166,'2025/06/30 16:15:03:702',11,0.16379,0.160135,-0.036823,-0.103051,-0.073513,0.207932,0.425804,0.516805,0.030927,-0.004264,-0.171409,-0.005276,0,0.029101,0.747627,0.689494,0.033186,0.711874,0.758329,-0.001164,0,0,0,1,0,0,0,0,0,0,0,0,0,0,0
167,'2025/06/30 16:15:03:710',11,0.16379,0.160135,-0.036823,-0.103051,-0.073513,0.207932,0.425804,0.516805,0.030927,-0.004264,-0.171409,-0.005276,0,0.029101,0.747627,0.689494,0.033186,0.711874,0.758329,-0.001164,0,0,0,1,0,0,0,0,0,0,0,0,0,0,0
168,'2025/06/30 16:15:03:719',11,0.16379,0.160135,-0.036823,-0.103051,-0.073513,0.207932,0.425804,0.516805,0.030927,-0.004264,-0.171409,-0.005276,0,0.029101,0.747627,0.689494,0.033186,0.711874,0.758329,-0.001164,0,0,0,1,0,0,0,0,0,0,0,0,0,0,0
169,'2025/06/30 16:15:03:726',11,0.16379,0.160135,-0.036823,-0.103051,-0.073513,0.207932,0.425804,0.516805,0.030927,-0.004264,-0.171409,-0.005276,0,0.029101,0.747627,0.689494,0.033186,0.711874,0.758329,-0.001164,0,0,0,1,0,0,0,0,0,0,0,0,0,0,0
170,'2025/06/30 16:15:03:733',11,0.16379,0.160135,-0.036823,-0.103051,-0.073513,0.207932,0.425804,0.516805,0.030927,-0.004264,-0.171409,-0.005276,0,0.029101,0.747627,0.689494,0.033186,0.711874,0.758329,-0.001164,0,0,0,1,0,0,0,0,0,0,0,0,0,0,0
171,'2025/06/30 16:15:09:702',12,0.232168,0.160135,-0.036823,-0.103051,-0.073513,0.220773,0.490894,0.530836,0.030927,-0.004264,-0.171409,-0.005276,0,0.029101,0.747627,0.689494,0.033186,0.711874,0.758329,-0.001164,0,0,0,1,0,0,0,0,0,0,0,0,0,0,0
172,'2025/06/30 16:15:09:710',12,0.232168,0.160135,-0.036823,-0.103051,-0.073513,0.220773,0.490894,0.530836,0.030927,-0.004264,-0.171409,-0.005276,0,0.029101,0.747627,0.689494,0.033186,0.711874,0.758329,-0.001164,0,0,0,1,0,0,0,0,0,0,0,0,0,0,0
173,'2025/06/30 16:15:09:718',12,0.232168,0.160135,-0.036823,-0.103051,-0.073513,0.220773,0.490894,0.530836,0.030927,-0.004264,-0.171409,-0.005276,0,0.029101,0.747627,0.689494,0.033186,0.711874,0.758329,-0.001164,0,0,0,1,0,0,0,0,0,0,0,0,0,0,0
174,'2025/06/30 16:15:09:725',12,0.232168,0.160135,-0.036823,-0.103051,-0.073513,0.220773,0.490894,0.530836,0.030927,-0.004264,-0.171409,-0.005276,0,0.029101,0.747627,0.689494,0.033186,0.711874,0.758329,-0.001164,0,0,0,1,0,0,0,0,0,0,0,0,0,0,0
175,'2025/06/30 16:15:09:734',12,0.232168,0.160135,-0.036823,-0.103051,-0.073513,0.220773,0.490894,0.530836,0.030927,-0.004264,-0.171409,-0.005276,0,0.029101,0.747627,0.689494,0.033186,0.711874,0.758329,-0.001164,0,0,0,1,0,0,0,0,0,0,0,0,0,0,0
176,'2025/06/30 16:15:09:741',12,0.232168,0.160135,-0.036823,-0.103051,-0.073513,0.220773,0.490894,0.530836,0.030927,-0.004264,-0.171409,-0.005276,0,0.029101,0.747627,0.689494,0.033186,0.711874,0.758329,-0.001164,0,0,0,1,0,0,0,0,0,0,0,0,0,0,0
177,'2025/06/30 16:15:09:750',12,0.232168,0.160135,-0.036823,-0.103051,-0.073513,0.220773,0.490894,0.530836,0.030927,-0.004264,-0.171409,-0.005276,0,0.029101,0.747627,0.689494,0.033186,0.711874,0.758329,-0.001164,0,0,0,1,0,0,0,0,0,0,0,0,0,0,0
178,'2025/06/30 16:15:09:758',12,0.232168,0.160135,-0.036823,-0.103051,-0.073513,0.220773,0.490894,0.530836,0.030927,-0.004264,-0.171409,-0.005276,0,0.029101,0.747627,0.689494,0.033186,0.711874,0.758329,-0.001164,0,0,0,1,0,0,0,0,0,0,0,0,0,0,0
179,'2025/06/30 16:15:09:765',12,0.232168,0.160135,-0.036823,-0.103051,-0.073513,0.220773,0.490894,0.530836,0.030927,-0.004264,-0.171409,-0.005276,0,0.029101,0.747627,0.689494,0.033186,0.711874,0.758329,-0.001164,0,0,0,1,0,0,0,0,0,0,0,0,0,0,0
180,'2025/06/30 16:15:09:773',12,0.232168,0.160135,-0.036823,-0.103051,-0.073513,0.220773,0.490894,0.530836,0.030927,-0.004264,-0.171409,-0.005276,0,0.029101,0.747627,0.689494,0.033186,0.711874,0.758329,-0.001164,0,0,0,1,0,0,0,0,0,0,0,0,0,0,0
181,'2025/06/30 16:15:09:782',12,0.232168,0.160135,-0.036823,-0.103051,-0.073513,0.220773,0.490894,0.530836,0.030927,-0.004264,-0.171409,-0.005276,0,0.029101,0.747627,0.689494,0.033186,0.711874,0.758329,-0.001164,0,0,0,1,0,0,0,0,0,0,0,0,0,0,0
182,'2025/06/30 16:15:09:790',12,0.232168,0.160135,-0.036823,-0.103051,-0.073513,0.220773,0.490894,0.530836,0.030927,-0.004264,-0.171409,-0.005276,0,0.029101,0.747627,0.689494,0.033186,0.711874,0.758329,-0.001164,0,0,0,1,0,0,0,0,0,0,0,0,0,0,0
183,'2025/06/30 16:15:09:798',12,0.232168,0.160135,-0.036823,-0.103051,-0.073513,0.220773,0.490894,0.530836,0.030927,-0.004264,-0.171409,-0.005276,0,0.029101,0.747627,0.689494,0.033186,0.711874,0.758329,-0.001164,0,0,0,1,0,0,0,0,0,0,0,0,0,0,0
184,'2025/06/30 16:15:09:807',12,0.232168,0.160135,-0.036823,-0.103051,-0.073513,0.220773,0.490894,0.530836,0.030927,-0.004264,-0.171409,-0.005276,0,0.029101,0.747627,0.689494,0.033186,0.711874,0.758329,-0.001164,0,0,0,1,0,0,0,0,0,0,0,0,0,0,0
185,'2025/06/30 16:15:09:814',12,0.232168,0.160135,-0.036823,-0.103051,-0.073513,0.220773,0.490894,0.530836,0.030927,-0.004264,-0.171409,-0.005276,0,0.029101,0.747627,0.689494,0.033186,0.711874,0.758329,-0.001164,0,0,0,1,0,0,0,0,0,0,0,0,0,0,0
186,'2025/06/30 16:15:09:821',12,0.232168,0.160135,-0.036823,-0.103051,-0.073513,0.220773,0.490894,0.530836,0.030927,-0.004264,-0.171409,-0.005276,0,0.029101,0.747627,0.689494,0.033186,0.711874,0.758329,-0.001164,0,0,0,1,0,0,0,0,0,0,0,0,0,0,0
187,'2025/06/30 16:15:09:830',12,0.232168,0.160135,-0.036823,-0.103051,-0.073513,0.220773,0.490894,0.530836,0.030927,-0.004264,-0.171409,-0.005276,0,0.029101,0.747627,0.689494,0.033186,0.711874,0.758329,-0.001164,0,0,0,1,0,0,0,0,0,0,0,0,0,0,0
188,'2025/06/30 16:15:09:837',12,0.232168,0.160135,-0.036823,-0.103051,-0.073513,0.220773,0.490894,0.530836,0.030927,-0.004264,-0.171409,-0.005276,0,0.029101,0.747627,0.689494,0.033186,0.711874,0.758329,-0.001164,0,0,0,1,0,0,0,0,0,0,0,0,0,0,0
189,'2025/06/30 16:15:27:504',13,0.232168,0.160135,-0.036823,-0.063239,-0.058052,0.220773,0.490894,0.530836,0.030927,-0.004264,-0.171409,-0.005276,0,0.029101,0.631716,0.738163,-0.001121,0.624026,0.776906,-0.012546,0,0,0,1,0,0,0,0,0,0,0,0,0,0,0
190,'2025/06/30 16:15:27:511',13,0.232168,0.160135,-0.036823,-0.063239,-0.058052,0.220773,0.490894,0.530836,0.030927,-0.004264,-0.171409,-0.005276,0,0.029101,0.631716,0.738163,-0.001121,0.624026,0.776906,-0.012546,0,0,0,1,0,0,0,0,0,0,0,0,0,0,0
191,'2025/06/30 16:15:27:518',13,0.232168,0.160135,-0.036823,-0.063239,-0.058052,0.220773,0.490894,0.530836,0.030927,-0.004264,-0.171409,-0.005276,0,0.029101,0.631716,0.738163,-0.001121,0.624026,0.776906,-0.012546,0,0,0,1,0,0,0,0,0,0,0,0,0,0,0
192,'2025/06/30 16:15:27:526',13,0.232168,0.160135,-0.036823,-0.063239,-0.058052,0.220773,0.490894,0.530836,0.030927,-0.004264,-0.171409,-0.005276,0,0.029101,0.631716,0.738163,-0.001121,0.624026,0.776906,-0.012546,0,0,0,1,0,0,0,0,0,0,0,0,0,0,0
193,'2025/06/30 16:15:27:533',13,0.232168,0.160135,-0.036823,-0.063239,-0.058052,0.220773,0.490894,0.530836,0.030927,-0.004264,-0.171409,-0.005276,0,0.029101,0.631716,0.738163,-0.001121,0.624026,0.776906,-0.012546,0,0,0,1,0,0,0,0,0,0,0,0,0,0,0
194,'2025/06/30 16:15:27:542',13,0.232168,0.160135,-0.036823,-0.063239,-0.058052,0.220773,0.490894,0.530836,0.030927,-0.004264,-0.171409,-0.005276,0,0.029101,0.631716,0.738163,-0.001121,0.624026,0.776906,-0.012546,0,0,0,1,0,0,0,0,0,0,0,0,0,0,0
195,'2025/06/30 16:15:27:551',13,0.232168,0.160135,-0.036823,-0.063239,-0.058052,0.220773,0.490894,0.530836,0.030927,-0.004264,-0.171409,-0.005276,0,0.029101,0.631716,0.738163,-0.001121,0.624026,0.776906,-0.012546,0,0,0,1,0,0,0,0,0,0,0,0,0,0,0
196,'2025/06/30 16:15:27:559',13,0.232168,0.160135,-0.036823,-0.063239,-0.058052,0.220773,0.490894,0.530836,0.030927,-0.004264,-0.171409,-0.005276,0,0.029101,0.631716,0.738163,-0.001121,0.624026,0.776906,-0.012546,0,0,0,1,0,0,0,0,0,0,0,0,0,0,0
197,'2025/06/30 16:15:27:566',13,0.232168,0.160135,-0.036823,-0.063239,-0.058052,0.220773,0.490894,0.530836,0.030927,-0.004264,-0.171409,-0.005276,0,0.029101,0.631716,0.738163,-0.001121,0.624026,0.776906,-0.012546,0,0,0,1,0,0,0,0,0,0,0,0,0,0,0
198,'2025/06/30 16:15:27:575',13,0.232168,0.160135,-0.036823,-0.063239,-0.058052,0.220773,0.490894,0.530836,0.030927,-0.004264,-0.171409,-0.005276,0,0.029101,0.631716,0.738163,-0.001121,0.624026,0.776906,-0.012546,0,0,0,1,0,0,0,0,0,0,0,0,0,0,0
199,'2025/06/30 16:15:27:583',13,0.232168,0.160135,-0.036823,-0.063239,-0.058052,0.220773,0.490894,0.530836,0.030927,-0.004264,-0.171409,-0.005276,0,0.029101,0.631716,0.738163,-0.001121,0.624026,0.776906,-0.012546,0,0,0,1,0,0,0,0,0,0,0,0,0,0,0
200,'2025/06/30 16:15:27:589',13,0.232168,0.160135,-0.036823,-0.063239,-0.058052,0.220773,0.490894,0.530836,0.030927,-0.004264,-0.171409,-0.005276,0,0.029101,0.631716,0.738163,-0.001121,0.624026,0.776906,-0.012546,0,0,0,1,0,0,0,0,0,0,0,0,0,0,0
201,'2025/06/30 16:15:27:598',13,0.232168,0.160135,-0.036823,-0.063239,-0.058052,0.220773,0.490894,0.530836,0.030927,-0.004264,-0.171409,-0.005276,0,0.029101,0.631716,0.738163,-0.001121,0.624026,0.776906,-0.012546,0,0,0,1,0,0,0,0,0,0,0,0,0,0,0
202,'2025/06/30 16:15:27:606',13,0.232168,0.160135,-0.036823,-0.063239,-0.058052,0.220773,0.490894,0.530836,0.030927,-0.004264,-0.171409,-0.005276,0,0.029101,0.631716,0.738163,-0.001121,0.624026,0.776906,-0.012546,0,0,0,1,0,0,0,0,0,0,0,0,0,0,0
203,'2025/06/30 16:15:27:614',13,0.232168,0.160135,-0.036823,-0.063239,-0.058052,0.220773,0.490894,0.530836,0.030927,-0.004264,-0.171409,-0.005276,0,0.029101,0.631716,0.738163,-0.001121,0.624026,0.776906,-0.012546,0,0,0,1,0,0,0,0,0,0,0,0,0,0,0
204,'2025/06/30 16:15:27:622',13,0.232168,0.160135,-0.036823,-0.063239,-0.058052,0.220773,0.490894,0.530836,0.030927,-0.004264,-0.171409,-0.005276,0,0.029101,0.631716,0.738163,-0.001121,0.624026,0.776906,-0.012546,0,0,0,1,0,0,0,0,0,0,0,0,0,0,0
205,'2025/06/30 16:15:27:630',13,0.232168,0.160135,-0.036823,-0.063239,-0.058052,0.220773,0.490894,0.530836,0.030927,-0.004264,-0.171409,-0.005276,0,0.029101,0.631716,0.738163,-0.001121,0.624026,0.776906,-0.012546,0,0,0,1,0,0,0,0,0,0,0,0,0,0,0
206,'2025/06/30 16:15:27:637',13,0.232168,0.160135,-0.036823,-0.063239,-0.058052,0.220773,0.490894,0.530836,0.030927,-0.004264,-0.171409,-0.005276,0,0.029101,0.631716,0.738163,-0.001121,0.624026,0.776906,-0.012546,0,0,0,1,0,0,0,0,0,0,0,0,0,0,0
207,'2025/06/30 16:15:27:645',13,0.232168,0.160135,-0.036823,-0.063239,-0.058052,0.220773,0.490894,0.530836,0.030927,-0.004264,-0.171409,-0.005276,0,0.029101,0.631716,0.738163,-0.001121,0.624026,0.776906,-0.012546,0,0,0,1,0,0,0,0,0,0,0,0,0,0,0
208,'2025/06/30 16:15:27:652',13,0.232168,0.160135,-0.036823,-0.063239,-0.058052,0.220773,0.490894,0.530836,0.030927,-0.004264,-0.171409,-0.005276,0,0.029101,0.631716,0.738163,-0.001121,0.624026,0.776906,-0.012546,0,0,0,1,0,0,0,0,0,0,0,0,0,0,0
209,'2025/06/30 16:15:32:081',14,0.232168,0.197987,-0.036823,-0.063239,-0.058052,0.220773,0.490894,0.530836,0.036303,-0.004264,-0.209477,-0.005276,0,0.029101,0.631716,0.738163,-0.001121,0.624026,0.776906,-0.012546,0,0,0,1,0,0,0,0,0,0,0,0,0,0,0
210,'2025/06/30 16:15:32:088',14,0.232168,0.197987,-0.036823,-0.063239,-0.058052,0.220773,0.490894,0.530836,0.036303,-0.004264,-0.209477,-0.005276,0,0.029101,0.631716,0.738163,-0.001121,0.624026,0.776906,-0.012546,0,0,0,1,0,0,0,0,0,0,0,0,0,0,0
211,'2025/06/30 16:15:32:096',14,0.232168,0.197987,-0.036823,-0.063239,-0.058052,0.220773,0.490894,0.530836,0.036303,-0.004264,-0.209477,-0.005276,0,0.029101,0.631716,0.738163,-0.001121,0.624026,0.776906,-0.012546,0,0,0,1,0,0,0,0,0,0,0,0,0,0,0
212,'2025/06/30 16:15:32:105',14,0.232168,0.197987,-0.036823,-0.063239,-0.058052,0.220773,0.490894,0.530836,0.036303,-0.004264,-0.209477,-0.005276,0,0.029101,0.631716,0.738163,-0.001121,0.624026,0.776906,-0.012546,0,0,0,1,0,0,0,0,0,0,0,0,0,0,0
213,'2025/06/30 16:15:32:113',14,0.232168,0.197987,-0.036823,-0.063239,-0.058052,0.220773,0.490894,0.530836,0.036303,-0.004264,-0.209477,-0.005276,0,0.029101,0.631716,0.738163,-0.001121,0.624026,0.776906,-0.012546,0,0,0,1,0,0,0,0,0,0,0,0,0,0,0
214,'2025/06/30 16:15:32:122',14,0.232168,0.197987,-0.036823,-0.063239,-0.058052,0.220773,0.490894,0.530836,0.036303,-0.004264,-0.209477,-0.005276,0,0.029101,0.631716,0.738163,-0.001121,0.624026,0.776906,-0.012546,0,0,0,1,0,0,0,0,0,0,0,0,0,0,0
215,'2025/06/30 16:15:32:131',14,0.232168,0.197987,-0.036823,-0.063239,-0.058052,0.220773,0.490894,0.530836,0.036303,-0.004264,-0.209477,-0.005276,0,0.029101,0.631716,0.738163,-0.001121,0.624026,0.776906,-0.012546,0,0,0,1,0,0,0,0,0,0,0,0,0,0,0
216,'2025/06/30 16:15:32:140',14,0.232168,0.197987,-0.036823,-0.063239,-0.058052,0.220773,0.490894,0.530836,0.036303,-0.004264,-0.209477,-0.005276,0,0.029101,0.631716,0.738163,-0.001121,0.624026,0.776906,-0.012546,0,0,0,1,0,0,0,0,0,0,0,0,0,0,0
217,'2025/06/30 16:15:32:148',14,0.232168,0.197987,-0.036823,-0.063239,-0.058052,0.220773,0.490894,0.530836,0.036303,-0.004264,-0.209477,-0.005276,0,0.029101,0.631716,0.738163,-0.001121,0.624026,0.776906,-0.012546,0,0,0,1,0,0,0,0,0,0,0,0,0,0,0
218,'2025/06/30 16:15:32:156',14,0.232168,0.197987,-0.036823,-0.063239,-0.058052,0.220773,0.490894,0.530836,0.036303,-0.004264,-0.209477,-0.005276,0,0.029101,0.631716,0.738163,-0.001121,0.624026,0.776906,-0.012546,0,0,0,1,0,0,0,0,0,0,0,0,0,0,0
219,'2025/06/30 16:15:32:164',14,0.232168,0.197987,-0.036823,-0.063239,-0.058052,0.220773,0.490894,0.530836,0.036303,-0.004264,-0.209477,-0.005276,0,0.029101,0.631716,0.738163,-0.001121,0.624026,0.776906,-0.012546,0,0,0,1,0,0,0,0,0,0,0,0,0,0,0
220,'2025/06/30 16:15:32:172',14,0.232168,0.197987,-0.036823,-0.063239,-0.058052,0.220773,0.490894,0.530836,0.036303,-0.004264,-0.209477,-0.005276,0,0.029101,0.631716,0.738163,-0.001121,0.624026,0.776906,-0.012546,0,0,0,1,0,0,0,0,0,0,0,0,0,0,0
221,'2025/06/30 16:15:32:180',14,0.232168,0.197987,-0.036823,-0.063239,-0.058052,0.220773,0.490894,0.530836,0.036303,-0.004264,-0.209477,-0.005276,0,0.029101,0.631716,0.738163,-0.001121,0.624026,0.776906,-0.012546,0,0,0,1,0,0,0,0,0,0,0,0,0,0,0
222,'2025/06/30 16:15:32:188',14,0.232168,0.197987,-0.036823,-0.063239,-0.058052,0.220773,0.490894,0.530836,0.036303,-0.004264,-0.209477,-0.005276,0,0.029101,0.631716,0.738163,-0.001121,0.624026,0.776906,-0.012546,0,0,0,1,0,0,0,0,0,0,0,0,0,0,0
223,'2025/06/30 16:15:32:196',14,0.232168,0.197987,-0.036823,-0.063239,-0.058052,0.220773,0.490894,0.530836,0.036303,-0.004264,-0.209477,-0.005276,0,0.029101,0.631716,0.738163,-0.001121,0.624026,0.776906,-0.012546,0,0,0,1,0,0,0,0,0,0,0,0,0,0,0
224,'2025/06/30 16:15:32:204',14,0.232168,0.197987,-0.036823,-0.063239,-0.058052,0.220773,0.490894,0.530836,0.036303,-0.004264,-0.209477,-0.005276,0,0.029101,0.631716,0.738163,-0.001121,0.624026,0.776906,-0.012546,0,0,0,1,0,0,0,0,0,0,0,0,0,0,0
225,'2025/06/30 16:15:36:721',15,0.272951,0.197987,-0.036823,-0.063239,-0.058052,0.164952,0.459881,0.48336,0.036303,-0.004264,-0.209477,-0.005276,0,0.029101,0.631716,0.738163,-0.001121,0.624026,0.776906,-0.012546,0,0,0,1,0,0,0,0,0,0,0,0,0,0,0
226,'2025/06/30 16:15:36:727',15,0.272951,0.197987,-0.036823,-0.063239,-0.058052,0.164952,0.459881,0.48336,0.036303,-0.004264,-0.209477,-0.005276,0,0.029101,0.631716,0.738163,-0.001121,0.624026,0.776906,-0.012546,0,0,0,1,0,0,0,0,0,0,0,0,0,0,0
227,'2025/06/30 16:15:36:733',15,0.272951,0.197987,-0.036823,-0.063239,-0.058052,0.164952,0.459881,0.48336,0.036303,-0.004264,-0.209477,-0.005276,0,0.029101,0.631716,0.738163,-0.001121,0.624026,0.776906,-0.012546,0,0,0,1,0,0,0,0,0,0,0,0,0,0,0
228,'2025/06/30 16:15:36:741',15,0.272951,0.197987,-0.036823,-0.063239,-0.058052,0.164952,0.459881,0.48336,0.036303,-0.004264,-0.209477,-0.005276,0,0.029101,0.631716,0.738163,-0.001121,0.624026,0.776906,-0.012546,0,0,0,1,0,0,0,0,0,0,0,0,0,0,0
229,'2025/06/30 16:15:36:748',15,0.272951,0.197987,-0.036823,-0.063239,-0.058052,0.164952,0.459881,0.48336,0.036303,-0.004264,-0.209477,-0.005276,0,0.029101,0.631716,0.738163,-0.001121,0.624026,0.776906,-0.012546,0,0,0,1,0,0,0,0,0,0,0,0,0,0,0
230,'2025/06/30 16:15:36:754',15,0.272951,0.197987,-0.036823,-0.063239,-0.058052,0.164952,0.459881,0.48336,0.036303,-0.004264,-0.209477,-0.005276,0,0.029101,0.631716,0.738163,-0.001121,0.624026,0.776906,-0.012546,0,0,0,1,0,0,0,0,0,0,0,0,0,0,0
231,'2025/06/30 16:15:36:762',15,0.272951,0.197987,-0.036823,-0.063239,-0.058052,0.164952,0.459881,0.48336,0.036303,-0.004264,-0.209477,-0.005276,0,0.029101,0.631716,0.738163,-0.001121,0.624026,0.776906,-0.012546,0,0,0,1,0,0,0,0,0,0,0,0,0,0,0
232,'2025/06/30 16:15:36:770',15,0.272951,0.197987,-0.036823,-0.063239,-0.058052,0.164952,0.459881,0.48336,0.036303,-0.004264,-0.209477,-0.005276,0,0.029101,0.631716,0.738163,-0.001121,0.624026,0.776906,-0.012546,0,0,0,1,0,0,0,0,0,0,0,0,0,0,0
233,'2025/06/30 16:15:36:778',15,0.272951,0.197987,-0.036823,-0.063239,-0.058052,0.164952,0.459881,0.48336,0.036303,-0.004264,-0.209477,-0.005276,0,0.029101,0.631716,0.738163,-0.001121,0.624026,0.776906,-0.012546,0,0,0,1,0,0,0,0,0,0,0,0,0,0,0
234,'2025/06/30 16:15:36:785',15,0.272951,0.197987,-0.036823,-0.063239,-0.058052,0.164952,0.459881,0.48336,0.036303,-0.004264,-0.209477,-0.005276,0,0.029101,0.631716,0.738163,-0.001121,0.624026,0.776906,-0.012546,0,0,0,1,0,0,0,0,0,0,0,0,0,0,0
235,'2025/06/30 16:15:36:792',15,0.272951,0.197987,-0.036823,-0.063239,-0.058052,0.164952,0.459881,0.48336,0.036303,-0.004264,-0.209477,-0.005276,0,0.029101,0.631716,0.738163,-0.001121,0.624026,0.776906,-0.012546,0,0,0,1,0,0,0,0,0,0,0,0,0,0,0
236,'2025/06/30 16:15:36:802',15,0.272951,0.197987,-0.036823,-0.063239,-0.058052,0.164952,0.459881,0.48336,0.036303,-0.004264,-0.209477,-0.005276,0,0.029101,0.631716,0.738163,-0.001121,0.624026,0.776906,-0.012546,0,0,0,1,0,0,0,0,0,0,0,0,0,0,0
237,'2025/06/30 16:15:36:808',15,0.272951,0.197987,-0.036823,-0.063239,-0.058052,0.164952,0.459881,0.48336,0.036303,-0.004264,-0.209477,-0.005276,0,0.029101,0.631716,0.738163,-0.001121,0.624026,0.776906,-0.012546,0,0,0,1,0,0,0,0,0,0,0,0,0,0,0
238,'2025/06/30 16:15:36:815',15,0.272951,0.197987,-0.036823,-0.063239,-0.058052,0.164952,0.459881,0.48336,0.036303,-0.004264,-0.209477,-0.005276,0,0.029101,0.631716,0.738163,-0.001121,0.624026,0.776906,-0.012546,0,0,0,1,0,0,0,0,0,0,0,0,0,0,0
239,'2025/06/30 16:15:36:824',15,0.272951,0.197987,-0.036823,-0.063239,-0.058052,0.164952,0.459881,0.48336,0.036303,-0.004264,-0.209477,-0.005276,0,0.029101,0.631716,0.738163,-0.001121,0.624026,0.776906,-0.012546,0,0,0,1,0,0,0,0,0,0,0,0,0,0,0
240,'2025/06/30 16:15:36:831',15,0.272951,0.197987,-0.036823,-0.063239,-0.058052,0.164952,0.459881,0.48336,0.036303,-0.004264,-0.209477,-0.005276,0,0.029101,0.631716,0.738163,-0.001121,0.624026,0.776906,-0.012546,0,0,0,1,0,0,0,0,0,0,0,0,0,0,0
241,'2025/06/30 16:15:36:840',15,0.272951,0.197987,-0.036823,-0.063239,-0.058052,0.164952,0.459881,0.48336,0.036303,-0.004264,-0.209477,-0.005276,0,0.029101,0.631716,0.738163,-0.001121,0.624026,0.776906,-0.012546,0,0,0,1,0,0,0,0,0,0,0,0,0,0,0
242,'2025/06/30 16:15:39:978',16,0.371151,0.197987,-0.036823,-0.063239,-0.058052,0.105879,0.452663,0.388048,0.036303,-0.004264,-0.209477,-0.005276,0,0.029101,0.631716,0.738163,-0.001121,0.624026,0.776906,-0.012546,0,0,0,1,0,0,0,0,0,0,0,0,0,0,0
243,'2025/06/30 16:15:39:985',16,0.371151,0.197987,-0.036823,-0.063239,-0.058052,0.105879,0.452663,0.388048,0.036303,-0.004264,-0.209477,-0.005276,0,0.029101,0.631716,0.738163,-0.001121,0.624026,0.776906,-0.012546,0,0,0,1,0,0,0,0,0,0,0,0,0,0,0
244,'2025/06/30 16:15:39:993',16,0.371151,0.197987,-0.036823,-0.063239,-0.058052,0.105879,0.452663,0.388048,0.036303,-0.004264,-0.209477,-0.005276,0,0.029101,0.631716,0.738163,-0.001121,0.624026,0.776906,-0.012546,0,0,0,1,0,0,0,0,0,0,0,0,0,0,0
245,'2025/06/30 16:15:39:998',16,0.371151,0.197987,-0.036823,-0.063239,-0.058052,0.105879,0.452663,0.388048,0.036303,-0.004264,-0.209477,-0.005276,0,0.029101,0.631716,0.738163,-0.001121,0.624026,0.776906,-0.012546,0,0,0,1,0,0,0,0,0,0,0,0,0,0,0
246,'2025/06/30 16:15:40:007',16,0.371151,0.197987,-0.036823,-0.063239,-0.058052,0.105879,0.452663,0.388048,0.036303,-0.004264,-0.209477,-0.005276,0,0.029101,0.631716,0.738163,-0.001121,0.624026,0.776906,-0.012546,0,0,0,1,0,0,0,0,0,0,0,0,0,0,0
247,'2025/06/30 16:15:40:014',16,0.371151,0.197987,-0.036823,-0.063239,-0.058052,0.105879,0.452663,0.388048,0.036303,-0.004264,-0.209477,-0.005276,0,0.029101,0.631716,0.738163,-0.001121,0.624026,0.776906,-0.012546,0,0,0,1,0,0,0,0,0,0,0,0,0,0,0
248,'2025/06/30 16:15:40:023',16,0.371151,0.197987,-0.036823,-0.063239,-0.058052,0.105879,0.452663,0.388048,0.036303,-0.004264,-0.209477,-0.005276,0,0.029101,0.631716,0.738163,-0.001121,0.624026,0.776906,-0.012546,0,0,0,1,0,0,0,0,0,0,0,0,0,0,0
249,'2025/06/30 16:15:40:031',16,0.371151,0.197987,-0.036823,-0.063239,-0.058052,0.105879,0.452663,0.388048,0.036303,-0.004264,-0.209477,-0.005276,0,0.029101,0.631716,0.738163,-0.001121,0.624026,0.776906,-0.012546,0,0,0,1,0,0,0,0,0,0,0,0,0,0,0
250,'2025/06/30 16:15:40:039',16,0.371151,0.197987,-0.036823,-0.063239,-0.058052,0.105879,0.452663,0.388048,0.036303,-0.004264,-0.209477,-0.005276,0,0.029101,0.631716,0.738163,-0.001121,0.624026,0.776906,-0.012546,0,0,0,1,0,0,0,0,0,0,0,0,0,0,0
251,'2025/06/30 16:15:40:046',16,0.371151,0.197987,-0.036823,-0.063239,-0.058052,0.105879,0.452663,0.388048,0.036303,-0.004264,-0.209477,-0.005276,0,0.029101,0.631716,0.738163,-0.001121,0.624026,0.776906,-0.012546,0,0,0,1,0,0,0,0,0,0,0,0,0,0,0
252,'2025/06/30 16:15:40:054',16,0.371151,0.197987,-0.036823,-0.063239,-0.058052,0.105879,0.452663,0.388048,0.036303,-0.004264,-0.209477,-0.005276,0,0.029101,0.631716,0.738163,-0.001121,0.624026,0.776906,-0.012546,0,0,0,1,0,0,0,0,0,0,0,0,0,0,0
253,'2025/06/30 16:15:40:062',16,0.371151,0.197987,-0.036823,-0.063239,-0.058052,0.105879,0.452663,0.388048,0.036303,-0.004264,-0.209477,-0.005276,0,0.029101,0.631716,0.738163,-0.001121,0.624026,0.776906,-0.012546,0,0,0,1,0,0,0,0,0,0,0,0,0,0,0
254,'2025/06/30 16:15:40:071',16,0.371151,0.197987,-0.036823,-0.063239,-0.058052,0.105879,0.452663,0.388048,0.036303,-0.004264,-0.209477,-0.005276,0,0.029101,0.631716,0.738163,-0.001121,0.624026,0.776906,-0.012546,0,0,0,1,0,0,0,0,0,0,0,0,0,0,0
255,'2025/06/30 16:15:40:078',16,0.371151,0.197987,-0.036823,-0.063239,-0.058052,0.105879,0.452663,0.388048,0.036303,-0.004264,-0.209477,-0.005276,0,0.029101,0.631716,0.738163,-0.001121,0.624026,0.776906,-0.012546,0,0,0,1,0,0,0,0,0,0,0,0,0,0,0
256,'2025/06/30 16:15:44:440',17,0.371151,0.148243,-0.036823,-0.063239,-0.058052,0.105879,0.452663,0.388048,0.028861,-0.004264,-0.15942,-0.005276,0,0.029101,0.631716,0.738163,-0.001121,0.624026,0.776906,-0.012546,0,0,0,1,0,0,0,0,0,0,0,0,0,0,0
257,'2025/06/30 16:15:44:448',17,0.371151,0.148243,-0.036823,-0.063239,-0.058052,0.105879,0.452663,0.388048,0.028861,-0.004264,-0.15942,-0.005276,0,0.029101,0.631716,0.738163,-0.001121,0.624026,0.776906,-0.012546,0,0,0,1,0,0,0,0,0,0,0,0,0,0,0
258,'2025/06/30 16:15:44:456',17,0.371151,0.148243,-0.036823,-0.063239,-0.058052,0.105879,0.452663,0.388048,0.028861,-0.004264,-0.15942,-0.005276,0,0.029101,0.631716,0.738163,-0.001121,0.624026,0.776906,-0.012546,0,0,0,1,0,0,0,0,0,0,0,0,0,0,0
259,'2025/06/30 16:15:44:464',17,0.371151,0.148243,-0.036823,-0.063239,-0.058052,0.105879,0.452663,0.388048,0.028861,-0.004264,-0.15942,-0.005276,0,0.029101,0.631716,0.738163,-0.001121,0.624026,0.776906,-0.012546,0,0,0,1,0,0,0,0,0,0,0,0,0,0,0
260,'2025/06/30 16:15:44:474',17,0.371151,0.148243,-0.036823,-0.063239,-0.058052,0.105879,0.452663,0.388048,0.028861,-0.004264,-0.15942,-0.005276,0,0.029101,0.631716,0.738163,-0.001121,0.624026,0.776906,-0.012546,0,0,0,1,0,0,0,0,0,0,0,0,0,0,0
261,'2025/06/30 16:15:44:482',17,0.371151,0.148243,-0.036823,-0.063239,-0.058052,0.105879,0.452663,0.388048,0.028861,-0.004264,-0.15942,-0.005276,0,0.029101,0.631716,0.738163,-0.001121,0.624026,0.776906,-0.012546,0,0,0,1,0,0,0,0,0,0,0,0,0,0,0
262,'2025/06/30 16:15:44:490',17,0.371151,0.148243,-0.036823,-0.063239,-0.058052,0.105879,0.452663,0.388048,0.028861,-0.004264,-0.15942,-0.005276,0,0.029101,0.631716,0.738163,-0.001121,0.624026,0.776906,-0.012546,0,0,0,1,0,0,0,0,0,0,0,0,0,0,0
263,'2025/06/30 16:15:44:498',17,0.371151,0.148243,-0.036823,-0.063239,-0.058052,0.105879,0.452663,0.388048,0.028861,-0.004264,-0.15942,-0.005276,0,0.029101,0.631716,0.738163,-0.001121,0.624026,0.776906,-0.012546,0,0,0,1,0,0,0,0,0,0,0,0,0,0,0
264,'2025/06/30 16:15:44:507',17,0.371151,0.148243,-0.036823,-0.063239,-0.058052,0.105879,0.452663,0.388048,0.028861,-0.004264,-0.15942,-0.005276,0,0.029101,0.631716,0.738163,-0.001121,0.624026,0.776906,-0.012546,0,0,0,1,0,0,0,0,0,0,0,0,0,0,0
265,'2025/06/30 16:15:44:514',17,0.371151,0.148243,-0.036823,-0.063239,-0.058052,0.105879,0.452663,0.388048,0.028861,-0.004264,-0.15942,-0.005276,0,0.029101,0.631716,0.738163,-0.001121,0.624026,0.776906,-0.012546,0,0,0,1,0,0,0,0,0,0,0,0,0,0,0
266,'2025/06/30 16:15:44:522',17,0.371151,0.148243,-0.036823,-0.063239,-0.058052,0.105879,0.452663,0.388048,0.028861,-0.004264,-0.15942,-0.005276,0,0.029101,0.631716,0.738163,-0.001121,0.624026,0.776906,-0.012546,0,0,0,1,0,0,0,0,0,0,0,0,0,0,0
267,'2025/06/30 16:15:44:529',17,0.371151,0.148243,-0.036823,-0.063239,-0.058052,0.105879,0.452663,0.388048,0.028861,-0.004264,-0.15942,-0.005276,0,0.029101,0.631716,0.738163,-0.001121,0.624026,0.776906,-0.012546,0,0,0,1,0,0,0,0,0,0,0,0,0,0,0
268,'2025/06/30 16:15:44:536',17,0.371151,0.148243,-0.036823,-0.063239,-0.058052,0.105879,0.452663,0.388048,0.028861,-0.004264,-0.15942,-0.005276,0,0.029101,0.631716,0.738163,-0.001121,0.624026,0.776906,-0.012546,0,0,0,1,0,0,0,0,0,0,0,0,0,0,0
269,'2025/06/30 16:15:44:545',17,0.371151,0.148243,-0.036823,-0.063239,-0.058052,0.105879,0.452663,0.388048,0.028861,-0.004264,-0.15942,-0.005276,0,0.029101,0.631716,0.738163,-0.001121,0.624026,0.776906,-0.012546,0,0,0,1,0,0,0,0,0,0,0,0,0,0,0
270,'2025/06/30 16:15:44:552',17,0.371151,0.148243,-0.036823,-0.063239,-0.058052,0.105879,0.452663,0.388048,0.028861,-0.004264,-0.15942,-0.005276,0,0.029101,0.631716,0.738163,-0.001121,0.624026,0.776906,-0.012546,0,0,0,1,0,0,0,0,0,0,0,0,0,0,0
271,'2025/06/30 16:15:53:242',18,0.371151,0.148243,-0.036823,-0.062972,-0.05916,0.105879,0.452663,0.388048,0.028861,-0.004264,-0.15942,-0.005276,0,0.029101,0.5881,0.841819,-0.000865,0.626361,0.839592,-0.013475,0,0,0,1,0,0,0,0,0,0,0,0,0,0,0
272,'2025/06/30 16:15:53:250',18,0.371151,0.148243,-0.036823,-0.062972,-0.05916,0.105879,0.452663,0.388048,0.028861,-0.004264,-0.15942,-0.005276,0,0.029101,0.5881,0.841819,-0.000865,0.626361,0.839592,-0.013475,0,0,0,1,0,0,0,0,0,0,0,0,0,0,0
273,'2025/06/30 16:15:53:257',18,0.371151,0.148243,-0.036823,-0.062972,-0.05916,0.105879,0.452663,0.388048,0.028861,-0.004264,-0.15942,-0.005276,0,0.029101,0.5881,0.841819,-0.000865,0.626361,0.839592,-0.013475,0,0,0,1,0,0,0,0,0,0,0,0,0,0,0
274,'2025/06/30 16:15:53:266',18,0.371151,0.148243,-0.036823,-0.062972,-0.05916,0.105879,0.452663,0.388048,0.028861,-0.004264,-0.15942,-0.005276,0,0.029101,0.5881,0.841819,-0.000865,0.626361,0.839592,-0.013475,0,0,0,1,0,0,0,0,0,0,0,0,0,0,0
275,'2025/06/30 16:15:53:273',18,0.371151,0.148243,-0.036823,-0.062972,-0.05916,0.105879,0.452663,0.388048,0.028861,-0.004264,-0.15942,-0.005276,0,0.029101,0.5881,0.841819,-0.000865,0.626361,0.839592,-0.013475,0,0,0,1,0,0,0,0,0,0,0,0,0,0,0
276,'2025/06/30 16:15:53:281',18,0.371151,0.148243,-0.036823,-0.062972,-0.05916,0.105879,0.452663,0.388048,0.028861,-0.004264,-0.15942,-0.005276,0,0.029101,0.5881,0.841819,-0.000865,0.626361,0.839592,-0.013475,0,0,0,1,0,0,0,0,0,0,0,0,0,0,0
277,'2025/06/30 16:15:53:288',18,0.371151,0.148243,-0.036823,-0.062972,-0.05916,0.105879,0.452663,0.388048,0.028861,-0.004264,-0.15942,-0.005276,0,0.029101,0.5881,0.841819,-0.000865,0.626361,0.839592,-0.013475,0,0,0,1,0,0,0,0,0,0,0,0,0,0,0
278,'2025/06/30 16:15:53:297',18,0.371151,0.148243,-0.036823,-0.062972,-0.05916,0.105879,0.452663,0.388048,0.028861,-0.004264,-0.15942,-0.005276,0,0.029101,0.5881,0.841819,-0.000865,0.626361,0.839592,-0.013475,0,0,0,1,0,0,0,0,0,0,0,0,0,0,0
279,'2025/06/30 16:15:53:305',18,0.371151,0.148243,-0.036823,-0.062972,-0.05916,0.105879,0.452663,0.388048,0.028861,-0.004264,-0.15942,-0.005276,0,0.029101,0.5881,0.841819,-0.000865,0.626361,0.839592,-0.013475,0,0,0,1,0,0,0,0,0,0,0,0,0,0,0
280,'2025/06/30 16:15:53:313',18,0.371151,0.148243,-0.036823,-0.062972,-0.05916,0.105879,0.452663,0.388048,0.028861,-0.004264,-0.15942,-0.005276,0,0.029101,0.5881,0.841819,-0.000865,0.626361,0.839592,-0.013475,0,0,0,1,0,0,0,0,0,0,0,0,0,0,0
281,'2025/06/30 16:15:53:320',18,0.371151,0.148243,-0.036823,-0.062972,-0.05916,0.105879,0.452663,0.388048,0.028861,-0.004264,-0.15942,-0.005276,0,0.029101,0.5881,0.841819,-0.000865,0.626361,0.839592,-0.013475,0,0,0,1,0,0,0,0,0,0,0,0,0,0,0
282,'2025/06/30 16:15:53:327',18,0.371151,0.148243,-0.036823,-0.062972,-0.05916,0.105879,0.452663,0.388048,0.028861,-0.004264,-0.15942,-0.005276,0,0.029101,0.5881,0.841819,-0.000865,0.626361,0.839592,-0.013475,0,0,0,1,0,0,0,0,0,0,0,0,0,0,0
283,'2025/06/30 16:15:53:335',18,0.371151,0.148243,-0.036823,-0.062972,-0.05916,0.105879,0.452663,0.388048,0.028861,-0.004264,-0.15942,-0.005276,0,0.029101,0.5881,0.841819,-0.000865,0.626361,0.839592,-0.013475,0,0,0,1,0,0,0,0,0,0,0,0,0,0,0
284,'2025/06/30 16:15:53:343',18,0.371151,0.148243,-0.036823,-0.062972,-0.05916,0.105879,0.452663,0.388048,0.028861,-0.004264,-0.15942,-0.005276,0,0.029101,0.5881,0.841819,-0.000865,0.626361,0.839592,-0.013475,0,0,0,1,0,0,0,0,0,0,0,0,0,0,0
352,'2025/06/30 16:15:59:940',20,0.091274,0.148243,-0.036823,-0.062972,-0.05916,0.223181,0.383277,0.509667,0.028861,-0.004264,-0.15942,-0.005276,0,0.029101,0.5881,0.841819,-0.000865,0.626361,0.839592,-0.013475,0,0,0,1,0,0,0,0,0,0,0,0,0,0,0
353,'2025/06/30 16:15:59:946',20,0.091274,0.148243,-0.036823,-0.062972,-0.05916,0.223181,0.383277,0.509667,0.028861,-0.004264,-0.15942,-0.005276,0,0.029101,0.5881,0.841819,-0.000865,0.626361,0.839592,-0.013475,0,0,0,1,0,0,0,0,0,0,0,0,0,0,0
354,'2025/06/30 16:15:59:953',20,0.091274,0.148243,-0.036823,-0.062972,-0.05916,0.223181,0.383277,0.509667,0.028861,-0.004264,-0.15942,-0.005276,0,0.029101,0.5881,0.841819,-0.000865,0.626361,0.839592,-0.013475,0,0,0,1,0,0,0,0,0,0,0,0,0,0,0
355,'2025/06/30 16:15:59:962',20,0.091274,0.148243,-0.036823,-0.062972,-0.05916,0.223181,0.383277,0.509667,0.028861,-0.004264,-0.15942,-0.005276,0,0.029101,0.5881,0.841819,-0.000865,0.626361,0.839592,-0.013475,0,0,0,1,0,0,0,0,0,0,0,0,0,0,0
356,'2025/06/30 16:15:59:969',20,0.091274,0.148243,-0.036823,-0.062972,-0.05916,0.223181,0.383277,0.509667,0.028861,-0.004264,-0.15942,-0.005276,0,0.029101,0.5881,0.841819,-0.000865,0.626361,0.839592,-0.013475,0,0,0,1,0,0,0,0,0,0,0,0,0,0,0
357,'2025/06/30 16:15:59:977',20,0.091274,0.148243,-0.036823,-0.062972,-0.05916,0.223181,0.383277,0.509667,0.028861,-0.004264,-0.15942,-0.005276,0,0.029101,0.5881,0.841819,-0.000865,0.626361,0.839592,-0.013475,0,0,0,1,0,0,0,0,0,0,0,0,0,0,0
358,'2025/06/30 16:15:59:984',20,0.091274,0.148243,-0.036823,-0.062972,-0.05916,0.223181,0.383277,0.509667,0.028861,-0.004264,-0.15942,-0.005276,0,0.029101,0.5881,0.841819,-0.000865,0.626361,0.839592,-0.013475,0,0,0,1,0,0,0,0,0,0,0,0,0,0,0
359,'2025/06/30 16:15:59:992',20,0.091274,0.148243,-0.036823,-0.062972,-0.05916,0.223181,0.383277,0.509667,0.028861,-0.004264,-0.15942,-0.005276,0,0.029101,0.5881,0.841819,-0.000865,0.626361,0.839592,-0.013475,0,0,0,1,0,0,0,0,0,0,0,0,0,0,0
360,'2025/06/30 16:16:00:002',20,0.091274,0.148243,-0.036823,-0.062972,-0.05916,0.223181,0.383277,0.509667,0.028861,-0.004264,-0.15942,-0.005276,0,0.029101,0.5881,0.841819,-0.000865,0.626361,0.839592,-0.013475,0,0,0,1,0,0,0,0,0,0,0,0,0,0,0
361,'2025/06/30 16:16:00:018',20,0.091274,0.148243,-0.036823,-0.062972,-0.05916,0.223181,0.383277,0.509667,0.028861,-0.004264,-0.15942,-0.005276,0,0.029101,0.5881,0.841819,-0.000865,0.626361,0.839592,-0.013475,0,0,0,1,0,0,0,0,0,0,0,0,0,0,0
362,'2025/06/30 16:16:00:027',20,0.091274,0.148243,-0.036823,-0.062972,-0.05916,0.223181,0.383277,0.509667,0.028861,-0.004264,-0.15942,-0.005276,0,0.029101,0.5881,0.841819,-0.000865,0.626361,0.839592,-0.013475,0,0,0,1,0,0,0,0,0,0,0,0,0,0,0
363,'2025/06/30 16:16:00:033',20,0.091274,0.148243,-0.036823,-0.062972,-0.05916,0.223181,0.383277,0.509667,0.028861,-0.004264,-0.15942,-0.005276,0,0.029101,0.5881,0.841819,-0.000865,0.626361,0.839592,-0.013475,0,0,0,1,0,0,0,0,0,0,0,0,0,0,0
364,'2025/06/30 16:16:00:041',20,0.091274,0.148243,-0.036823,-0.062972,-0.05916,0.223181,0.383277,0.509667,0.028861,-0.004264,-0.15942,-0.005276,0,0.029101,0.5881,0.841819,-0.000865,0.626361,0.839592,-0.013475,0,0,0,1,0,0,0,0,0,0,0,0,0,0,0
365,'2025/06/30 16:16:00:048',20,0.091274,0.148243,-0.036823,-0.062972,-0.05916,0.223181,0.383277,0.509667,0.028861,-0.004264,-0.15942,-0.005276,0,0.029101,0.5881,0.841819,-0.000865,0.626361,0.839592,-0.013475,0,0,0,1,0,0,0,0,0,0,0,0,0,0,0
366,'2025/06/30 16:16:05:202',21,0.091274,0.185621,-0.067507,-0.062972,-0.05916,0.223181,0.383277,0.509667,0.035325,-0.004264,-0.197097,-0.009673,0,0.060033,0.5881,0.841819,-0.000865,0.626361,0.839592,-0.013475,0,0,0,1,0,0,0,0,0,0,0,0,0,0,0
367,'2025/06/30 16:16:05:211',21,0.091274,0.185621,-0.067507,-0.062972,-0.05916,0.223181,0.383277,0.509667,0.035325,-0.004264,-0.197097,-0.009673,0,0.060033,0.5881,0.841819,-0.000865,0.626361,0.839592,-0.013475,0,0,0,1,0,0,0,0,0,0,0,0,0,0,0
368,'2025/06/30 16:16:05:218',21,0.091274,0.185621,-0.067507,-0.062972,-0.05916,0.223181,0.383277,0.509667,0.035325,-0.004264,-0.197097,-0.009673,0,0.060033,0.5881,0.841819,-0.000865,0.626361,0.839592,-0.013475,0,0,0,1,0,0,0,0,0,0,0,0,0,0,0
369,'2025/06/30 16:16:05:225',21,0.091274,0.185621,-0.067507,-0.062972,-0.05916,0.223181,0.383277,0.509667,0.035325,-0.004264,-0.197097,-0.009673,0,0.060033,0.5881,0.841819,-0.000865,0.626361,0.839592,-0.013475,0,0,0,1,0,0,0,0,0,0,0,0,0,0,0
370,'2025/06/30 16:16:05:234',21,0.091274,0.185621,-0.067507,-0.062972,-0.05916,0.223181,0.383277,0.509667,0.035325,-0.004264,-0.197097,-0.009673,0,0.060033,0.5881,0.841819,-0.000865,0.626361,0.839592,-0.013475,0,0,0,1,0,0,0,0,0,0,0,0,0,0,0
371,'2025/06/30 16:16:05:242',21,0.091274,0.185621,-0.067507,-0.062972,-0.05916,0.223181,0.383277,0.509667,0.035325,-0.004264,-0.197097,-0.009673,0,0.060033,0.5881,0.841819,-0.000865,0.626361,0.839592,-0.013475,0,0,0,1,0,0,0,0,0,0,0,0,0,0,0
372,'2025/06/30 16:16:05:251',21,0.091274,0.185621,-0.067507,-0.062972,-0.05916,0.223181,0.383277,0.509667,0.035325,-0.004264,-0.197097,-0.009673,0,0.060033,0.5881,0.841819,-0.000865,0.626361,0.839592,-0.013475,0,0,0,1,0,0,0,0,0,0,0,0,0,0,0
373,'2025/06/30 16:16:05:260',21,0.091274,0.185621,-0.067507,-0.062972,-0.05916,0.223181,0.383277,0.509667,0.035325,-0.004264,-0.197097,-0.009673,0,0.060033,0.5881,0.841819,-0.000865,0.626361,0.839592,-0.013475,0,0,0,1,0,0,0,0,0,0,0,0,0,0,0
374,'2025/06/30 16:16:05:268',21,0.091274,0.185621,-0.067507,-0.062972,-0.05916,0.223181,0.383277,0.509667,0.035325,-0.004264,-0.197097,-0.009673,0,0.060033,0.5881,0.841819,-0.000865,0.626361,0.839592,-0.013475,0,0,0,1,0,0,0,0,0,0,0,0,0,0,0
375,'2025/06/30 16:16:05:277',21,0.091274,0.185621,-0.067507,-0.062972,-0.05916,0.223181,0.383277,0.509667,0.035325,-0.004264,-0.197097,-0.009673,0,0.060033,0.5881,0.841819,-0.000865,0.626361,0.839592,-0.013475,0,0,0,1,0,0,0,0,0,0,0,0,0,0,0
376,'2025/06/30 16:16:05:284',21,0.091274,0.185621,-0.067507,-0.062972,-0.05916,0.223181,0.383277,0.509667,0.035325,-0.004264,-0.197097,-0.009673,0,0.060033,0.5881,0.841819,-0.000865,0.626361,0.839592,-0.013475,0,0,0,1,0,0,0,0,0,0,0,0,0,0,0
377,'2025/06/30 16:16:05:290',21,0.091274,0.185621,-0.067507,-0.062972,-0.05916,0.223181,0.383277,0.509667,0.035325,-0.004264,-0.197097,-0.009673,0,0.060033,0.5881,0.841819,-0.000865,0.626361,0.839592,-0.013475,0,0,0,1,0,0,0,0,0,0,0,0,0,0,0
378,'2025/06/30 16:16:05:297',21,0.091274,0.185621,-0.067507,-0.062972,-0.05916,0.223181,0.383277,0.509667,0.035325,-0.004264,-0.197097,-0.009673,0,0.060033,0.5881,0.841819,-0.000865,0.626361,0.839592,-0.013475,0,0,0,1,0,0,0,0,0,0,0,0,0,0,0
379,'2025/06/30 16:16:07:715',22,0.091274,0.202164,-0.067507,-0.062972,-0.05916,0.223181,0.383277,0.509667,0.037595,-0.004264,-0.213727,-0.009673,0,0.060033,0.5881,0.841819,-0.000865,0.626361,0.839592,-0.013475,0,0,0,1,0,0,0,0,0,0,0,0,0,0,0
380,'2025/06/30 16:16:07:724',22,0.091274,0.202164,-0.067507,-0.062972,-0.05916,0.223181,0.383277,0.509667,0.037595,-0.004264,-0.213727,-0.009673,0,0.060033,0.5881,0.841819,-0.000865,0.626361,0.839592,-0.013475,0,0,0,1,0,0,0,0,0,0,0,0,0,0,0
381,'2025/06/30 16:16:07:731',22,0.091274,0.202164,-0.067507,-0.062972,-0.05916,0.223181,0.383277,0.509667,0.037595,-0.004264,-0.213727,-0.009673,0,0.060033,0.5881,0.841819,-0.000865,0.626361,0.839592,-0.013475,0,0,0,1,0,0,0,0,0,0,0,0,0,0,0
382,'2025/06/30 16:16:07:740',22,0.091274,0.202164,-0.067507,-0.062972,-0.05916,0.223181,0.383277,0.509667,0.037595,-0.004264,-0.213727,-0.009673,0,0.060033,0.5881,0.841819,-0.000865,0.626361,0.839592,-0.013475,0,0,0,1,0,0,0,0,0,0,0,0,0,0,0
383,'2025/06/30 16:16:07:750',22,0.091274,0.202164,-0.067507,-0.062972,-0.05916,0.223181,0.383277,0.509667,0.037595,-0.004264,-0.213727,-0.009673,0,0.060033,0.5881,0.841819,-0.000865,0.626361,0.839592,-0.013475,0,0,0,1,0,0,0,0,0,0,0,0,0,0,0
384,'2025/06/30 16:16:07:758',22,0.091274,0.202164,-0.067507,-0.062972,-0.05916,0.223181,0.383277,0.509667,0.037595,-0.004264,-0.213727,-0.009673,0,0.060033,0.5881,0.841819,-0.000865,0.626361,0.839592,-0.013475,0,0,0,1,0,0,0,0,0,0,0,0,0,0,0
385,'2025/06/30 16:16:07:766',22,0.091274,0.202164,-0.067507,-0.062972,-0.05916,0.223181,0.383277,0.509667,0.037595,-0.004264,-0.213727,-0.009673,0,0.060033,0.5881,0.841819,-0.000865,0.626361,0.839592,-0.013475,0,0,0,1,0,0,0,0,0,0,0,0,0,0,0
386,'2025/06/30 16:16:07:774',22,0.091274,0.202164,-0.067507,-0.062972,-0.05916,0.223181,0.383277,0.509667,0.037595,-0.004264,-0.213727,-0.009673,0,0.060033,0.5881,0.841819,-0.000865,0.626361,0.839592,-0.013475,0,0,0,1,0,0,0,0,0,0,0,0,0,0,0
387,'2025/06/30 16:16:07:782',22,0.091274,0.202164,-0.067507,-0.062972,-0.05916,0.223181,0.383277,0.509667,0.037595,-0.004264,-0.213727,-0.009673,0,0.060033,0.5881,0.841819,-0.000865,0.626361,0.839592,-0.013475,0,0,0,1,0,0,0,0,0,0,0,0,0,0,0
388,'2025/06/30 16:16:07:790',22,0.091274,0.202164,-0.067507,-0.062972,-0.05916,0.223181,0.383277,0.509667,0.037595,-0.004264,-0.213727,-0.009673,0,0.060033,0.5881,0.841819,-0.000865,0.626361,0.839592,-0.013475,0,0,0,1,0,0,0,0,0,0,0,0,0,0,0
389,'2025/06/30 16:16:07:797',22,0.091274,0.202164,-0.067507,-0.062972,-0.05916,0.223181,0.383277,0.509667,0.037595,-0.004264,-0.213727,-0.009673,0,0.060033,0.5881,0.841819,-0.000865,0.626361,0.839592,-0.013475,0,0,0,1,0,0,0,0,0,0,0,0,0,0,0
390,'2025/06/30 16:16:07:805',22,0.091274,0.202164,-0.067507,-0.062972,-0.05916,0.223181,0.383277,0.509667,0.037595,-0.004264,-0.213727,-0.009673,0,0.060033,0.5881,0.841819,-0.000865,0.626361,0.839592,-0.013475,0,0,0,1,0,0,0,0,0,0,0,0,0,0,0
391,'2025/06/30 16:16:07:813',22,0.091274,0.202164,-0.067507,-0.062972,-0.05916,0.223181,0.383277,0.509667,0.037595,-0.004264,-0.213727,-0.009673,0,0.060033,0.5881,0.841819,-0.000865,0.626361,0.839592,-0.013475,0,0,0,1,0,0,0,0,0,0,0,0,0,0,0
392,'2025/06/30 16:16:07:821',22,0.091274,0.202164,-0.067507,-0.062972,-0.05916,0.223181,0.383277,0.509667,0.037595,-0.004264,-0.213727,-0.009673,0,0.060033,0.5881,0.841819,-0.000865,0.626361,0.839592,-0.013475,0,0,0,1,0,0,0,0,0,0,0,0,0,0,0
393,'2025/06/30 16:16:07:828',22,0.091274,0.202164,-0.067507,-0.062972,-0.05916,0.223181,0.383277,0.509667,0.037595,-0.004264,-0.213727,-0.009673,0,0.060033,0.5881,0.841819,-0.000865,0.626361,0.839592,-0.013475,0,0,0,1,0,0,0,0,0,0,0,0,0,0,0
394,'2025/06/30 16:16:07:837',22,0.091274,0.202164,-0.067507,-0.062972,-0.05916,0.223181,0.383277,0.509667,0.037595,-0.004264,-0.213727,-0.009673,0,0.060033,0.5881,0.841819,-0.000865,0.626361,0.839592,-0.013475,0,0,0,1,0,0,0,0,0,0,0,0,0,0,0
395,'2025/06/30 16:16:10:866',23,0.120619,0.202164,-0.067507,-0.062972,-0.05916,0.259401,0.451382,0.568542,0.037595,-0.004264,-0.213727,-0.009673,0,0.060033,0.5881,0.841819,-0.000865,0.626361,0.839592,-0.013475,0,0,0,1,0,0,0,0,0,0,0,0,0,0,0
396,'2025/06/30 16:16:10:875',23,0.120619,0.202164,-0.067507,-0.062972,-0.05916,0.259401,0.451382,0.568542,0.037595,-0.004264,-0.213727,-0.009673,0,0.060033,0.5881,0.841819,-0.000865,0.626361,0.839592,-0.013475,0,0,0,1,0,0,0,0,0,0,0,0,0,0,0
397,'2025/06/30 16:16:10:882',23,0.120619,0.202164,-0.067507,-0.062972,-0.05916,0.259401,0.451382,0.568542,0.037595,-0.004264,-0.213727,-0.009673,0,0.060033,0.5881,0.841819,-0.000865,0.626361,0.839592,-0.013475,0,0,0,1,0,0,0,0,0,0,0,0,0,0,0
398,'2025/06/30 16:16:10:890',23,0.120619,0.202164,-0.067507,-0.062972,-0.05916,0.259401,0.451382,0.568542,0.037595,-0.004264,-0.213727,-0.009673,0,0.060033,0.5881,0.841819,-0.000865,0.626361,0.839592,-0.013475,0,0,0,1,0,0,0,0,0,0,0,0,0,0,0
399,'2025/06/30 16:16:10:899',23,0.120619,0.202164,-0.067507,-0.062972,-0.05916,0.259401,0.451382,0.568542,0.037595,-0.004264,-0.213727,-0.009673,0,0.060033,0.5881,0.841819,-0.000865,0.626361,0.839592,-0.013475,0,0,0,1,0,0,0,0,0,0,0,0,0,0,0
400,'2025/06/30 16:16:10:906',23,0.120619,0.202164,-0.067507,-0.062972,-0.05916,0.259401,0.451382,0.568542,0.037595,-0.004264,-0.213727,-0.009673,0,0.060033,0.5881,0.841819,-0.000865,0.626361,0.839592,-0.013475,0,0,0,1,0,0,0,0,0,0,0,0,0,0,0
401,'2025/06/30 16:16:10:914',23,0.120619,0.202164,-0.067507,-0.062972,-0.05916,0.259401,0.451382,0.568542,0.037595,-0.004264,-0.213727,-0.009673,0,0.060033,0.5881,0.841819,-0.000865,0.626361,0.839592,-0.013475,0,0,0,1,0,0,0,0,0,0,0,0,0,0,0
402,'2025/06/30 16:16:10:923',23,0.120619,0.202164,-0.067507,-0.062972,-0.05916,0.259401,0.451382,0.568542,0.037595,-0.004264,-0.213727,-0.009673,0,0.060033,0.5881,0.841819,-0.000865,0.626361,0.839592,-0.013475,0,0,0,1,0,0,0,0,0,0,0,0,0,0,0
403,'2025/06/30 16:16:10:931',23,0.120619,0.202164,-0.067507,-0.062972,-0.05916,0.259401,0.451382,0.568542,0.037595,-0.004264,-0.213727,-0.009673,0,0.060033,0.5881,0.841819,-0.000865,0.626361,0.839592,-0.013475,0,0,0,1,0,0,0,0,0,0,0,0,0,0,0
404,'2025/06/30 16:16:10:939',23,0.120619,0.202164,-0.067507,-0.062972,-0.05916,0.259401,0.451382,0.568542,0.037595,-0.004264,-0.213727,-0.009673,0,0.060033,0.5881,0.841819,-0.000865,0.626361,0.839592,-0.013475,0,0,0,1,0,0,0,0,0,0,0,0,0,0,0
405,'2025/06/30 16:16:10:946',23,0.120619,0.202164,-0.067507,-0.062972,-0.05916,0.259401,0.451382,0.568542,0.037595,-0.004264,-0.213727,-0.009673,0,0.060033,0.5881,0.841819,-0.000865,0.626361,0.839592,-0.013475,0,0,0,1,0,0,0,0,0,0,0,0,0,0,0
406,'2025/06/30 16:16:10:953',23,0.120619,0.202164,-0.067507,-0.062972,-0.05916,0.259401,0.451382,0.568542,0.037595,-0.004264,-0.213727,-0.009673,0,0.060033,0.5881,0.841819,-0.000865,0.626361,0.839592,-0.013475,0,0,0,1,0,0,0,0,0,0,0,0,0,0,0
407,'2025/06/30 16:16:10:958',23,0.120619,0.202164,-0.067507,-0.062972,-0.05916,0.259401,0.451382,0.568542,0.037595,-0.004264,-0.213727,-0.009673,0,0.060033,0.5881,0.841819,-0.000865,0.626361,0.839592,-0.013475,0,0,0,1,0,0,0,0,0,0,0,0,0,0,0
408,'2025/06/30 16:16:10:967',23,0.120619,0.202164,-0.067507,-0.062972,-0.05916,0.259401,0.451382,0.568542,0.037595,-0.004264,-0.213727,-0.009673,0,0.060033,0.5881,0.841819,-0.000865,0.626361,0.839592,-0.013475,0,0,0,1,0,0,0,0,0,0,0,0,0,0,0
409,'2025/06/30 16:16:10:975',23,0.120619,0.202164,-0.067507,-0.062972,-0.05916,0.259401,0.451382,0.568542,0.037595,-0.004264,-0.213727,-0.009673,0,0.060033,0.5881,0.841819,-0.000865,0.626361,0.839592,-0.013475,0,0,0,1,0,0,0,0,0,0,0,0,0,0,0
410,'2025/06/30 16:16:10:983',23,0.120619,0.202164,-0.067507,-0.062972,-0.05916,0.259401,0.451382,0.568542,0.037595,-0.004264,-0.213727,-0.009673,0,0.060033,0.5881,0.841819,-0.000865,0.626361,0.839592,-0.013475,0,0,0,1,0,0,0,0,0,0,0,0,0,0,0
411,'2025/06/30 16:17:37:870',24,0.221924,-0.040256,-0.068404,-0.110515,0,0.251895,0,-0.246759,0.637052,0.754083,-0.001523,0.691795,0.703713,0.004097,0.753837,0.684899,0.040348,0,0,-0.008008,0,0,0,0,1,0,0,0,0,0,0,0,0,0,0
412,'2025/06/30 16:17:37:877',24,0.221924,-0.040256,-0.068404,-0.110515,0,0.251895,0,-0.246759,0.637052,0.754083,-0.001523,0.691795,0.703713,0.004097,0.753837,0.684899,0.040348,0,0,-0.008008,0,0,0,0,1,0,0,0,0,0,0,0,0,0,0
413,'2025/06/30 16:17:37:882',24,0.221924,-0.040256,-0.068404,-0.110515,0,0.251895,0,-0.246759,0.637052,0.754083,-0.001523,0.691795,0.703713,0.004097,0.753837,0.684899,0.040348,0,0,-0.008008,0,0,0,0,1,0,0,0,0,0,0,0,0,0,0
414,'2025/06/30 16:17:37:888',24,0.221924,-0.040256,-0.068404,-0.110515,0,0.251895,0,-0.246759,0.637052,0.754083,-0.001523,0.691795,0.703713,0.004097,0.753837,0.684899,0.040348,0,0,-0.008008,0,0,0,0,1,0,0,0,0,0,0,0,0,0,0
415,'2025/06/30 16:17:37:893',24,0.221924,-0.040256,-0.068404,-0.110515,0,0.251895,0,-0.246759,0.637052,0.754083,-0.001523,0.691795,0.703713,0.004097,0.753837,0.684899,0.040348,0,0,-0.008008,0,0,0,0,1,0,0,0,0,0,0,0,0,0,0
416,'2025/06/30 16:17:37:899',24,0.221924,-0.040256,-0.068404,-0.110515,0,0.251895,0,-0.246759,0.637052,0.754083,-0.001523,0.691795,0.703713,0.004097,0.753837,0.684899,0.040348,0,0,-0.008008,0,0,0,0,1,0,0,0,0,0,0,0,0,0,0
417,'2025/06/30 16:17:37:905',24,0.221924,-0.040256,-0.068404,-0.110515,0,0.251895,0,-0.246759,0.637052,0.754083,-0.001523,0.691795,0.703713,0.004097,0.753837,0.684899,0.040348,0,0,-0.008008,0,0,0,0,1,0,0,0,0,0,0,0,0,0,0
418,'2025/06/30 16:17:37:911',24,0.221924,-0.040256,-0.068404,-0.110515,0,0.251895,0,-0.246759,0.637052,0.754083,-0.001523,0.691795,0.703713,0.004097,0.753837,0.684899,0.040348,0,0,-0.008008,0,0,0,0,1,0,0,0,0,0,0,0,0,0,0
419,'2025/06/30 16:17:37:916',24,0.221924,-0.040256,-0.068404,-0.110515,0,0.251895,0,-0.246759,0.637052,0.754083,-0.001523,0.691795,0.703713,0.004097,0.753837,0.684899,0.040348,0,0,-0.008008,0,0,0,0,1,0,0,0,0,0,0,0,0,0,0
420,'2025/06/30 16:17:37:921',24,0.221924,-0.040256,-0.068404,-0.110515,0,0.251895,0,-0.246759,0.637052,0.754083,-0.001523,0.691795,0.703713,0.004097,0.753837,0.684899,0.040348,0,0,-0.008008,0,0,0,0,1,0,0,0,0,0,0,0,0,0,0
421,'2025/06/30 16:17:37:926',24,0.221924,-0.040256,-0.068404,-0.110515,0,0.251895,0,-0.246759,0.637052,0.754083,-0.001523,0.691795,0.703713,0.004097,0.753837,0.684899,0.040348,0,0,-0.008008,0,0,0,0,1,0,0,0,0,0,0,0,0,0,0
422,'2025/06/30 16:17:37:932',24,0.221924,-0.040256,-0.068404,-0.110515,0,0.251895,0,-0.246759,0.637052,0.754083,-0.001523,0.691795,0.703713,0.004097,0.753837,0.684899,0.040348,0,0,-0.008008,0,0,0,0,1,0,0,0,0,0,0,0,0,0,0
423,'2025/06/30 16:17:37:937',24,0.221924,-0.040256,-0.068404,-0.110515,0,0.251895,0,-0.246759,0.637052,0.754083,-0.001523,0.691795,0.703713,0.004097,0.753837,0.684899,0.040348,0,0,-0.008008,0,0,0,0,1,0,0,0,0,0,0,0,0,0,0
424,'2025/06/30 16:17:37:943',24,0.221924,-0.040256,-0.068404,-0.110515,0,0.251895,0,-0.246759,0.637052,0.754083,-0.001523,0.691795,0.703713,0.004097,0.753837,0.684899,0.040348,0,0,-0.008008,0,0,0,0,1,0,0,0,0,0,0,0,0,0,0
425,'2025/06/30 16:17:37:950',24,0.221924,-0.040256,-0.068404,-0.110515,0,0.251895,0,-0.246759,0.637052,0.754083,-0.001523,0.691795,0.703713,0.004097,0.753837,0.684899,0.040348,0,0,-0.008008,0,0,0,0,1,0,0,0,0,0,0,0,0,0,0
426,'2025/06/30 16:17:37:955',24,0.221924,-0.040256,-0.068404,-0.110515,0,0.251895,0,-0.246759,0.637052,0.754083,-0.001523,0.691795,0.703713,0.004097,0.753837,0.684899,0.040348,0,0,-0.008008,0,0,0,0,1,0,0,0,0,0,0,0,0,0,0
427,'2025/06/30 16:17:37:961',24,0.221924,-0.040256,-0.068404,-0.110515,0,0.251895,0,-0.246759,0.637052,0.754083,-0.001523,0.691795,0.703713,0.004097,0.753837,0.684899,0.040348,0,0,-0.008008,0,0,0,0,1,0,0,0,0,0,0,0,0,0,0
428,'2025/06/30 16:17:37:966',24,0.221924,-0.040256,-0.068404,-0.110515,0,0.251895,0,-0.246759,0.637052,0.754083,-0.001523,0.691795,0.703713,0.004097,0.753837,0.684899,0.040348,0,0,-0.008008,0,0,0,0,1,0,0,0,0,0,0,0,0,0,0
429,'2025/06/30 16:17:37:971',24,0.221924,-0.040256,-0.068404,-0.110515,0,0.251895,0,-0.246759,0.637052,0.754083,-0.001523,0.691795,0.703713,0.004097,0.753837,0.684899,0.040348,0,0,-0.008008,0,0,0,0,1,0,0,0,0,0,0,0,0,0,0
430,'2025/06/30 16:17:37:977',24,0.221924,-0.040256,-0.068404,-0.110515,0,0.251895,0,-0.246759,0.637052,0.754083,-0.001523,0.691795,0.703713,0.004097,0.753837,0.684899,0.040348,0,0,-0.008008,0,0,0,0,1,0,0,0,0,0,0,0,0,0,0
431,'2025/06/30 16:17:37:983',24,0.221924,-0.040256,-0.068404,-0.110515,0,0.251895,0,-0.246759,0.637052,0.754083,-0.001523,0.691795,0.703713,0.004097,0.753837,0.684899,0.040348,0,0,-0.008008,0,0,0,0,1,0,0,0,0,0,0,0,0,0,0
432,'2025/06/30 16:17:37:988',24,0.221924,-0.040256,-0.068404,-0.110515,0,0.251895,0,-0.246759,0.637052,0.754083,-0.001523,0.691795,0.703713,0.004097,0.753837,0.684899,0.040348,0,0,-0.008008,0,0,0,0,1,0,0,0,0,0,0,0,0,0,0
433,'2025/06/30 16:17:37:993',24,0.221924,-0.040256,-0.068404,-0.110515,0,0.251895,0,-0.246759,0.637052,0.754083,-0.001523,0.691795,0.703713,0.004097,0.753837,0.684899,0.040348,0,0,-0.008008,0,0,0,0,1,0,0,0,0,0,0,0,0,0,0
434,'2025/06/30 16:17:37:998',24,0.221924,-0.040256,-0.068404,-0.110515,0,0.251895,0,-0.246759,0.637052,0.754083,-0.001523,0.691795,0.703713,0.004097,0.753837,0.684899,0.040348,0,0,-0.008008,0,0,0,0,1,0,0,0,0,0,0,0,0,0,0
435,'2025/06/30 16:17:38:004',24,0.221924,-0.040256,-0.068404,-0.110515,0,0.251895,0,-0.246759,0.637052,0.754083,-0.001523,0.691795,0.703713,0.004097,0.753837,0.684899,0.040348,0,0,-0.008008,0,0,0,0,1,0,0,0,0,0,0,0,0,0,0
436,'2025/06/30 16:17:38:010',24,0.221924,-0.040256,-0.068404,-0.110515,0,0.251895,0,-0.246759,0.637052,0.754083,-0.001523,0.691795,0.703713,0.004097,0.753837,0.684899,0.040348,0,0,-0.008008,0,0,0,0,1,0,0,0,0,0,0,0,0,0,0
437,'2025/06/30 16:17:38:017',24,0.221924,-0.040256,-0.068404,-0.110515,0,0.251895,0,-0.246759,0.637052,0.754083,-0.001523,0.691795,0.703713,0.004097,0.753837,0.684899,0.040348,0,0,-0.008008,0,0,0,0,1,0,0,0,0,0,0,0,0,0,0
438,'2025/06/30 16:17:38:022',24,0.221924,-0.040256,-0.068404,-0.110515,0,0.251895,0,-0.246759,0.637052,0.754083,-0.001523,0.691795,0.703713,0.004097,0.753837,0.684899,0.040348,0,0,-0.008008,0,0,0,0,1,0,0,0,0,0,0,0,0,0,0
439,'2025/06/30 16:17:44:832',25,0.246557,-0.040256,-0.068404,-0.110515,-0.087054,0.253999,0,-0.271418,0.637052,0.754083,-0.001523,0.691795,0.703713,0.004097,0.753837,0.684899,0.040348,-0.012474,0,0.079741,0,0,0,0,1,0,0,0,0,0,0,0,0,0,0
440,'2025/06/30 16:17:44:838',25,0.246557,-0.040256,-0.068404,-0.110515,-0.087054,0.253999,0,-0.271418,0.637052,0.754083,-0.001523,0.691795,0.703713,0.004097,0.753837,0.684899,0.040348,-0.012474,0,0.079741,0,0,0,0,1,0,0,0,0,0,0,0,0,0,0
441,'2025/06/30 16:17:44:843',25,0.246557,-0.040256,-0.068404,-0.110515,-0.087054,0.253999,0,-0.271418,0.637052,0.754083,-0.001523,0.691795,0.703713,0.004097,0.753837,0.684899,0.040348,-0.012474,0,0.079741,0,0,0,0,1,0,0,0,0,0,0,0,0,0,0
442,'2025/06/30 16:17:44:848',25,0.246557,-0.040256,-0.068404,-0.110515,-0.087054,0.253999,0,-0.271418,0.637052,0.754083,-0.001523,0.691795,0.703713,0.004097,0.753837,0.684899,0.040348,-0.012474,0,0.079741,0,0,0,0,1,0,0,0,0,0,0,0,0,0,0
443,'2025/06/30 16:17:44:854',25,0.246557,-0.040256,-0.068404,-0.110515,-0.087054,0.253999,0,-0.271418,0.637052,0.754083,-0.001523,0.691795,0.703713,0.004097,0.753837,0.684899,0.040348,-0.012474,0,0.079741,0,0,0,0,1,0,0,0,0,0,0,0,0,0,0
444,'2025/06/30 16:17:44:860',25,0.246557,-0.040256,-0.068404,-0.110515,-0.087054,0.253999,0,-0.271418,0.637052,0.754083,-0.001523,0.691795,0.703713,0.004097,0.753837,0.684899,0.040348,-0.012474,0,0.079741,0,0,0,0,1,0,0,0,0,0,0,0,0,0,0
445,'2025/06/30 16:17:44:866',25,0.246557,-0.040256,-0.068404,-0.110515,-0.087054,0.253999,0,-0.271418,0.637052,0.754083,-0.001523,0.691795,0.703713,0.004097,0.753837,0.684899,0.040348,-0.012474,0,0.079741,0,0,0,0,1,0,0,0,0,0,0,0,0,0,0
446,'2025/06/30 16:17:44:871',25,0.246557,-0.040256,-0.068404,-0.110515,-0.087054,0.253999,0,-0.271418,0.637052,0.754083,-0.001523,0.691795,0.703713,0.004097,0.753837,0.684899,0.040348,-0.012474,0,0.079741,0,0,0,0,1,0,0,0,0,0,0,0,0,0,0
447,'2025/06/30 16:17:44:877',25,0.246557,-0.040256,-0.068404,-0.110515,-0.087054,0.253999,0,-0.271418,0.637052,0.754083,-0.001523,0.691795,0.703713,0.004097,0.753837,0.684899,0.040348,-0.012474,0,0.079741,0,0,0,0,1,0,0,0,0,0,0,0,0,0,0
448,'2025/06/30 16:17:44:882',25,0.246557,-0.040256,-0.068404,-0.110515,-0.087054,0.253999,0,-0.271418,0.637052,0.754083,-0.001523,0.691795,0.703713,0.004097,0.753837,0.684899,0.040348,-0.012474,0,0.079741,0,0,0,0,1,0,0,0,0,0,0,0,0,0,0
449,'2025/06/30 16:17:44:887',25,0.246557,-0.040256,-0.068404,-0.110515,-0.087054,0.253999,0,-0.271418,0.637052,0.754083,-0.001523,0.691795,0.703713,0.004097,0.753837,0.684899,0.040348,-0.012474,0,0.079741,0,0,0,0,1,0,0,0,0,0,0,0,0,0,0
450,'2025/06/30 16:17:44:893',25,0.246557,-0.040256,-0.068404,-0.110515,-0.087054,0.253999,0,-0.271418,0.637052,0.754083,-0.001523,0.691795,0.703713,0.004097,0.753837,0.684899,0.040348,-0.012474,0,0.079741,0,0,0,0,1,0,0,0,0,0,0,0,0,0,0
451,'2025/06/30 16:17:44:898',25,0.246557,-0.040256,-0.068404,-0.110515,-0.087054,0.253999,0,-0.271418,0.637052,0.754083,-0.001523,0.691795,0.703713,0.004097,0.753837,0.684899,0.040348,-0.012474,0,0.079741,0,0,0,0,1,0,0,0,0,0,0,0,0,0,0
452,'2025/06/30 16:17:44:904',25,0.246557,-0.040256,-0.068404,-0.110515,-0.087054,0.253999,0,-0.271418,0.637052,0.754083,-0.001523,0.691795,0.703713,0.004097,0.753837,0.684899,0.040348,-0.012474,0,0.079741,0,0,0,0,1,0,0,0,0,0,0,0,0,0,0
453,'2025/06/30 16:17:44:910',25,0.246557,-0.040256,-0.068404,-0.110515,-0.087054,0.253999,0,-0.271418,0.637052,0.754083,-0.001523,0.691795,0.703713,0.004097,0.753837,0.684899,0.040348,-0.012474,0,0.079741,0,0,0,0,1,0,0,0,0,0,0,0,0,0,0
454,'2025/06/30 16:17:44:915',25,0.246557,-0.040256,-0.068404,-0.110515,-0.087054,0.253999,0,-0.271418,0.637052,0.754083,-0.001523,0.691795,0.703713,0.004097,0.753837,0.684899,0.040348,-0.012474,0,0.079741,0,0,0,0,1,0,0,0,0,0,0,0,0,0,0
455,'2025/06/30 16:17:44:920',25,0.246557,-0.040256,-0.068404,-0.110515,-0.087054,0.253999,0,-0.271418,0.637052,0.754083,-0.001523,0.691795,0.703713,0.004097,0.753837,0.684899,0.040348,-0.012474,0,0.079741,0,0,0,0,1,0,0,0,0,0,0,0,0,0,0
456,'2025/06/30 16:17:44:927',25,0.246557,-0.040256,-0.068404,-0.110515,-0.087054,0.253999,0,-0.271418,0.637052,0.754083,-0.001523,0.691795,0.703713,0.004097,0.753837,0.684899,0.040348,-0.012474,0,0.079741,0,0,0,0,1,0,0,0,0,0,0,0,0,0,0
457,'2025/06/30 16:17:44:932',25,0.246557,-0.040256,-0.068404,-0.110515,-0.087054,0.253999,0,-0.271418,0.637052,0.754083,-0.001523,0.691795,0.703713,0.004097,0.753837,0.684899,0.040348,-0.012474,0,0.079741,0,0,0,0,1,0,0,0,0,0,0,0,0,0,0
458,'2025/06/30 16:17:44:937',25,0.246557,-0.040256,-0.068404,-0.110515,-0.087054,0.253999,0,-0.271418,0.637052,0.754083,-0.001523,0.691795,0.703713,0.004097,0.753837,0.684899,0.040348,-0.012474,0,0.079741,0,0,0,0,1,0,0,0,0,0,0,0,0,0,0
459,'2025/06/30 16:17:44:943',25,0.246557,-0.040256,-0.068404,-0.110515,-0.087054,0.253999,0,-0.271418,0.637052,0.754083,-0.001523,0.691795,0.703713,0.004097,0.753837,0.684899,0.040348,-0.012474,0,0.079741,0,0,0,0,1,0,0,0,0,0,0,0,0,0,0
460,'2025/06/30 16:17:44:947',25,0.246557,-0.040256,-0.068404,-0.110515,-0.087054,0.253999,0,-0.271418,0.637052,0.754083,-0.001523,0.691795,0.703713,0.004097,0.753837,0.684899,0.040348,-0.012474,0,0.079741,0,0,0,0,1,0,0,0,0,0,0,0,0,0,0
461,'2025/06/30 16:17:44:953',25,0.246557,-0.040256,-0.068404,-0.110515,-0.087054,0.253999,0,-0.271418,0.637052,0.754083,-0.001523,0.691795,0.703713,0.004097,0.753837,0.684899,0.040348,-0.012474,0,0.079741,0,0,0,0,1,0,0,0,0,0,0,0,0,0,0
462,'2025/06/30 16:17:44:958',25,0.246557,-0.040256,-0.068404,-0.110515,-0.087054,0.253999,0,-0.271418,0.637052,0.754083,-0.001523,0.691795,0.703713,0.004097,0.753837,0.684899,0.040348,-0.012474,0,0.079741,0,0,0,0,1,0,0,0,0,0,0,0,0,0,0
463,'2025/06/30 16:17:44:965',25,0.246557,-0.040256,-0.068404,-0.110515,-0.087054,0.253999,0,-0.271418,0.637052,0.754083,-0.001523,0.691795,0.703713,0.004097,0.753837,0.684899,0.040348,-0.012474,0,0.079741,0,0,0,0,1,0,0,0,0,0,0,0,0,0,0
464,'2025/06/30 16:17:44:971',25,0.246557,-0.040256,-0.068404,-0.110515,-0.087054,0.253999,0,-0.271418,0.637052,0.754083,-0.001523,0.691795,0.703713,0.004097,0.753837,0.684899,0.040348,-0.012474,0,0.079741,0,0,0,0,1,0,0,0,0,0,0,0,0,0,0
465,'2025/06/30 16:17:44:975',25,0.246557,-0.040256,-0.068404,-0.110515,-0.087054,0.253999,0,-0.271418,0.637052,0.754083,-0.001523,0.691795,0.703713,0.004097,0.753837,0.684899,0.040348,-0.012474,0,0.079741,0,0,0,0,1,0,0,0,0,0,0,0,0,0,0
466,'2025/06/30 16:17:56:967',26,0.264552,-0.021777,-0.068404,-0.110515,-0.15545,0.258307,0,-0.28962,0.627005,0.79926,-0.020979,0.691795,0.703713,0.004097,0.753837,0.684899,0.040348,-0.022273,0,0.148726,0,0,0,0,1,0,0,0,0,0,0,0,0,0,0
467,'2025/06/30 16:17:56:972',26,0.264552,-0.021777,-0.068404,-0.110515,-0.15545,0.258307,0,-0.28962,0.627005,0.79926,-0.020979,0.691795,0.703713,0.004097,0.753837,0.684899,0.040348,-0.022273,0,0.148726,0,0,0,0,1,0,0,0,0,0,0,0,0,0,0
468,'2025/06/30 16:17:56:978',26,0.264552,-0.021777,-0.068404,-0.110515,-0.15545,0.258307,0,-0.28962,0.627005,0.79926,-0.020979,0.691795,0.703713,0.004097,0.753837,0.684899,0.040348,-0.022273,0,0.148726,0,0,0,0,1,0,0,0,0,0,0,0,0,0,0
469,'2025/06/30 16:17:56:982',26,0.264552,-0.021777,-0.068404,-0.110515,-0.15545,0.258307,0,-0.28962,0.627005,0.79926,-0.020979,0.691795,0.703713,0.004097,0.753837,0.684899,0.040348,-0.022273,0,0.148726,0,0,0,0,1,0,0,0,0,0,0,0,0,0,0
470,'2025/06/30 16:17:56:988',26,0.264552,-0.021777,-0.068404,-0.110515,-0.15545,0.258307,0,-0.28962,0.627005,0.79926,-0.020979,0.691795,0.703713,0.004097,0.753837,0.684899,0.040348,-0.022273,0,0.148726,0,0,0,0,1,0,0,0,0,0,0,0,0,0,0
471,'2025/06/30 16:17:56:992',26,0.264552,-0.021777,-0.068404,-0.110515,-0.15545,0.258307,0,-0.28962,0.627005,0.79926,-0.020979,0.691795,0.703713,0.004097,0.753837,0.684899,0.040348,-0.022273,0,0.148726,0,0,0,0,1,0,0,0,0,0,0,0,0,0,0
472,'2025/06/30 16:17:56:998',26,0.264552,-0.021777,-0.068404,-0.110515,-0.15545,0.258307,0,-0.28962,0.627005,0.79926,-0.020979,0.691795,0.703713,0.004097,0.753837,0.684899,0.040348,-0.022273,0,0.148726,0,0,0,0,1,0,0,0,0,0,0,0,0,0,0
473,'2025/06/30 16:17:57:003',26,0.264552,-0.021777,-0.068404,-0.110515,-0.15545,0.258307,0,-0.28962,0.627005,0.79926,-0.020979,0.691795,0.703713,0.004097,0.753837,0.684899,0.040348,-0.022273,0,0.148726,0,0,0,0,1,0,0,0,0,0,0,0,0,0,0
474,'2025/06/30 16:17:57:008',26,0.264552,-0.021777,-0.068404,-0.110515,-0.15545,0.258307,0,-0.28962,0.627005,0.79926,-0.020979,0.691795,0.703713,0.004097,0.753837,0.684899,0.040348,-0.022273,0,0.148726,0,0,0,0,1,0,0,0,0,0,0,0,0,0,0
475,'2025/06/30 16:17:57:014',26,0.264552,-0.021777,-0.068404,-0.110515,-0.15545,0.258307,0,-0.28962,0.627005,0.79926,-0.020979,0.691795,0.703713,0.004097,0.753837,0.684899,0.040348,-0.022273,0,0.148726,0,0,0,0,1,0,0,0,0,0,0,0,0,0,0
476,'2025/06/30 16:17:57:020',26,0.264552,-0.021777,-0.068404,-0.110515,-0.15545,0.258307,0,-0.28962,0.627005,0.79926,-0.020979,0.691795,0.703713,0.004097,0.753837,0.684899,0.040348,-0.022273,0,0.148726,0,0,0,0,1,0,0,0,0,0,0,0,0,0,0
477,'2025/06/30 16:17:57:025',26,0.264552,-0.021777,-0.068404,-0.110515,-0.15545,0.258307,0,-0.28962,0.627005,0.79926,-0.020979,0.691795,0.703713,0.004097,0.753837,0.684899,0.040348,-0.022273,0,0.148726,0,0,0,0,1,0,0,0,0,0,0,0,0,0,0
478,'2025/06/30 16:17:57:031',26,0.264552,-0.021777,-0.068404,-0.110515,-0.15545,0.258307,0,-0.28962,0.627005,0.79926,-0.020979,0.691795,0.703713,0.004097,0.753837,0.684899,0.040348,-0.022273,0,0.148726,0,0,0,0,1,0,0,0,0,0,0,0,0,0,0
479,'2025/06/30 16:17:57:037',26,0.264552,-0.021777,-0.068404,-0.110515,-0.15545,0.258307,0,-0.28962,0.627005,0.79926,-0.020979,0.691795,0.703713,0.004097,0.753837,0.684899,0.040348,-0.022273,0,0.148726,0,0,0,0,1,0,0,0,0,0,0,0,0,0,0
480,'2025/06/30 16:17:57:042',26,0.264552,-0.021777,-0.068404,-0.110515,-0.15545,0.258307,0,-0.28962,0.627005,0.79926,-0.020979,0.691795,0.703713,0.004097,0.753837,0.684899,0.040348,-0.022273,0,0.148726,0,0,0,0,1,0,0,0,0,0,0,0,0,0,0
481,'2025/06/30 16:17:57:048',26,0.264552,-0.021777,-0.068404,-0.110515,-0.15545,0.258307,0,-0.28962,0.627005,0.79926,-0.020979,0.691795,0.703713,0.004097,0.753837,0.684899,0.040348,-0.022273,0,0.148726,0,0,0,0,1,0,0,0,0,0,0,0,0,0,0
482,'2025/06/30 16:17:57:053',26,0.264552,-0.021777,-0.068404,-0.110515,-0.15545,0.258307,0,-0.28962,0.627005,0.79926,-0.020979,0.691795,0.703713,0.004097,0.753837,0.684899,0.040348,-0.022273,0,0.148726,0,0,0,0,1,0,0,0,0,0,0,0,0,0,0
483,'2025/06/30 16:17:57:058',26,0.264552,-0.021777,-0.068404,-0.110515,-0.15545,0.258307,0,-0.28962,0.627005,0.79926,-0.020979,0.691795,0.703713,0.004097,0.753837,0.684899,0.040348,-0.022273,0,0.148726,0,0,0,0,1,0,0,0,0,0,0,0,0,0,0
484,'2025/06/30 16:17:57:064',26,0.264552,-0.021777,-0.068404,-0.110515,-0.15545,0.258307,0,-0.28962,0.627005,0.79926,-0.020979,0.691795,0.703713,0.004097,0.753837,0.684899,0.040348,-0.022273,0,0.148726,0,0,0,0,1,0,0,0,0,0,0,0,0,0,0
485,'2025/06/30 16:17:57:070',26,0.264552,-0.021777,-0.068404,-0.110515,-0.15545,0.258307,0,-0.28962,0.627005,0.79926,-0.020979,0.691795,0.703713,0.004097,0.753837,0.684899,0.040348,-0.022273,0,0.148726,0,0,0,0,1,0,0,0,0,0,0,0,0,0,0
486,'2025/06/30 16:17:57:075',26,0.264552,-0.021777,-0.068404,-0.110515,-0.15545,0.258307,0,-0.28962,0.627005,0.79926,-0.020979,0.691795,0.703713,0.004097,0.753837,0.684899,0.040348,-0.022273,0,0.148726,0,0,0,0,1,0,0,0,0,0,0,0,0,0,0
487,'2025/06/30 16:17:57:080',26,0.264552,-0.021777,-0.068404,-0.110515,-0.15545,0.258307,0,-0.28962,0.627005,0.79926,-0.020979,0.691795,0.703713,0.004097,0.753837,0.684899,0.040348,-0.022273,0,0.148726,0,0,0,0,1,0,0,0,0,0,0,0,0,0,0
488,'2025/06/30 16:17:57:086',26,0.264552,-0.021777,-0.068404,-0.110515,-0.15545,0.258307,0,-0.28962,0.627005,0.79926,-0.020979,0.691795,0.703713,0.004097,0.753837,0.684899,0.040348,-0.022273,0,0.148726,0,0,0,0,1,0,0,0,0,0,0,0,0,0,0
489,'2025/06/30 16:17:57:091',26,0.264552,-0.021777,-0.068404,-0.110515,-0.15545,0.258307,0,-0.28962,0.627005,0.79926,-0.020979,0.691795,0.703713,0.004097,0.753837,0.684899,0.040348,-0.022273,0,0.148726,0,0,0,0,1,0,0,0,0,0,0,0,0,0,0
490,'2025/06/30 16:17:57:097',26,0.264552,-0.021777,-0.068404,-0.110515,-0.15545,0.258307,0,-0.28962,0.627005,0.79926,-0.020979,0.691795,0.703713,0.004097,0.753837,0.684899,0.040348,-0.022273,0,0.148726,0,0,0,0,1,0,0,0,0,0,0,0,0,0,0
491,'2025/06/30 16:17:57:103',26,0.264552,-0.021777,-0.068404,-0.110515,-0.15545,0.258307,0,-0.28962,0.627005,0.79926,-0.020979,0.691795,0.703713,0.004097,0.753837,0.684899,0.040348,-0.022273,0,0.148726,0,0,0,0,1,0,0,0,0,0,0,0,0,0,0
492,'2025/06/30 16:17:57:108',26,0.264552,-0.021777,-0.068404,-0.110515,-0.15545,0.258307,0,-0.28962,0.627005,0.79926,-0.020979,0.691795,0.703713,0.004097,0.753837,0.684899,0.040348,-0.022273,0,0.148726,0,0,0,0,1,0,0,0,0,0,0,0,0,0,0
493,'2025/06/30 16:18:01:363',27,0.344237,-0.021777,-0.068404,-0.110515,-0.243914,0.275259,0,-0.370034,0.627005,0.79926,-0.020979,0.691795,0.703713,0.004097,0.753837,0.684899,0.040348,-0.034948,0,0.238012,0,0,0,0,1,0,0,0,0,0,0,0,0,0,0
494,'2025/06/30 16:18:01:367',27,0.344237,-0.021777,-0.068404,-0.110515,-0.243914,0.275259,0,-0.370034,0.627005,0.79926,-0.020979,0.691795,0.703713,0.004097,0.753837,0.684899,0.040348,-0.034948,0,0.238012,0,0,0,0,1,0,0,0,0,0,0,0,0,0,0
495,'2025/06/30 16:18:01:373',27,0.344237,-0.021777,-0.068404,-0.110515,-0.243914,0.275259,0,-0.370034,0.627005,0.79926,-0.020979,0.691795,0.703713,0.004097,0.753837,0.684899,0.040348,-0.034948,0,0.238012,0,0,0,0,1,0,0,0,0,0,0,0,0,0,0
496,'2025/06/30 16:18:01:379',27,0.344237,-0.021777,-0.068404,-0.110515,-0.243914,0.275259,0,-0.370034,0.627005,0.79926,-0.020979,0.691795,0.703713,0.004097,0.753837,0.684899,0.040348,-0.034948,0,0.238012,0,0,0,0,1,0,0,0,0,0,0,0,0,0,0
497,'2025/06/30 16:18:01:387',27,0.344237,-0.021777,-0.068404,-0.110515,-0.243914,0.275259,0,-0.370034,0.627005,0.79926,-0.020979,0.691795,0.703713,0.004097,0.753837,0.684899,0.040348,-0.034948,0,0.238012,0,0,0,0,1,0,0,0,0,0,0,0,0,0,0
498,'2025/06/30 16:18:01:393',27,0.344237,-0.021777,-0.068404,-0.110515,-0.243914,0.275259,0,-0.370034,0.627005,0.79926,-0.020979,0.691795,0.703713,0.004097,0.753837,0.684899,0.040348,-0.034948,0,0.238012,0,0,0,0,1,0,0,0,0,0,0,0,0,0,0
499,'2025/06/30 16:18:01:399',27,0.344237,-0.021777,-0.068404,-0.110515,-0.243914,0.275259,0,-0.370034,0.627005,0.79926,-0.020979,0.691795,0.703713,0.004097,0.753837,0.684899,0.040348,-0.034948,0,0.238012,0,0,0,0,1,0,0,0,0,0,0,0,0,0,0
500,'2025/06/30 16:18:01:404',27,0.344237,-0.021777,-0.068404,-0.110515,-0.243914,0.275259,0,-0.370034,0.627005,0.79926,-0.020979,0.691795,0.703713,0.004097,0.753837,0.684899,0.040348,-0.034948,0,0.238012,0,0,0,0,1,0,0,0,0,0,0,0,0,0,0
501,'2025/06/30 16:18:01:409',27,0.344237,-0.021777,-0.068404,-0.110515,-0.243914,0.275259,0,-0.370034,0.627005,0.79926,-0.020979,0.691795,0.703713,0.004097,0.753837,0.684899,0.040348,-0.034948,0,0.238012,0,0,0,0,1,0,0,0,0,0,0,0,0,0,0
502,'2025/06/30 16:18:01:416',27,0.344237,-0.021777,-0.068404,-0.110515,-0.243914,0.275259,0,-0.370034,0.627005,0.79926,-0.020979,0.691795,0.703713,0.004097,0.753837,0.684899,0.040348,-0.034948,0,0.238012,0,0,0,0,1,0,0,0,0,0,0,0,0,0,0
503,'2025/06/30 16:18:01:420',27,0.344237,-0.021777,-0.068404,-0.110515,-0.243914,0.275259,0,-0.370034,0.627005,0.79926,-0.020979,0.691795,0.703713,0.004097,0.753837,0.684899,0.040348,-0.034948,0,0.238012,0,0,0,0,1,0,0,0,0,0,0,0,0,0,0
504,'2025/06/30 16:18:01:425',27,0.344237,-0.021777,-0.068404,-0.110515,-0.243914,0.275259,0,-0.370034,0.627005,0.79926,-0.020979,0.691795,0.703713,0.004097,0.753837,0.684899,0.040348,-0.034948,0,0.238012,0,0,0,0,1,0,0,0,0,0,0,0,0,0,0
505,'2025/06/30 16:18:01:431',27,0.344237,-0.021777,-0.068404,-0.110515,-0.243914,0.275259,0,-0.370034,0.627005,0.79926,-0.020979,0.691795,0.703713,0.004097,0.753837,0.684899,0.040348,-0.034948,0,0.238012,0,0,0,0,1,0,0,0,0,0,0,0,0,0,0
506,'2025/06/30 16:18:01:435',27,0.344237,-0.021777,-0.068404,-0.110515,-0.243914,0.275259,0,-0.370034,0.627005,0.79926,-0.020979,0.691795,0.703713,0.004097,0.753837,0.684899,0.040348,-0.034948,0,0.238012,0,0,0,0,1,0,0,0,0,0,0,0,0,0,0
507,'2025/06/30 16:18:01:440',27,0.344237,-0.021777,-0.068404,-0.110515,-0.243914,0.275259,0,-0.370034,0.627005,0.79926,-0.020979,0.691795,0.703713,0.004097,0.753837,0.684899,0.040348,-0.034948,0,0.238012,0,0,0,0,1,0,0,0,0,0,0,0,0,0,0
508,'2025/06/30 16:18:01:445',27,0.344237,-0.021777,-0.068404,-0.110515,-0.243914,0.275259,0,-0.370034,0.627005,0.79926,-0.020979,0.691795,0.703713,0.004097,0.753837,0.684899,0.040348,-0.034948,0,0.238012,0,0,0,0,1,0,0,0,0,0,0,0,0,0,0
509,'2025/06/30 16:18:01:450',27,0.344237,-0.021777,-0.068404,-0.110515,-0.243914,0.275259,0,-0.370034,0.627005,0.79926,-0.020979,0.691795,0.703713,0.004097,0.753837,0.684899,0.040348,-0.034948,0,0.238012,0,0,0,0,1,0,0,0,0,0,0,0,0,0,0
510,'2025/06/30 16:18:01:455',27,0.344237,-0.021777,-0.068404,-0.110515,-0.243914,0.275259,0,-0.370034,0.627005,0.79926,-0.020979,0.691795,0.703713,0.004097,0.753837,0.684899,0.040348,-0.034948,0,0.238012,0,0,0,0,1,0,0,0,0,0,0,0,0,0,0
511,'2025/06/30 16:18:01:461',27,0.344237,-0.021777,-0.068404,-0.110515,-0.243914,0.275259,0,-0.370034,0.627005,0.79926,-0.020979,0.691795,0.703713,0.004097,0.753837,0.684899,0.040348,-0.034948,0,0.238012,0,0,0,0,1,0,0,0,0,0,0,0,0,0,0
512,'2025/06/30 16:18:01:466',27,0.344237,-0.021777,-0.068404,-0.110515,-0.243914,0.275259,0,-0.370034,0.627005,0.79926,-0.020979,0.691795,0.703713,0.004097,0.753837,0.684899,0.040348,-0.034948,0,0.238012,0,0,0,0,1,0,0,0,0,0,0,0,0,0,0
513,'2025/06/30 16:18:01:471',27,0.344237,-0.021777,-0.068404,-0.110515,-0.243914,0.275259,0,-0.370034,0.627005,0.79926,-0.020979,0.691795,0.703713,0.004097,0.753837,0.684899,0.040348,-0.034948,0,0.238012,0,0,0,0,1,0,0,0,0,0,0,0,0,0,0
514,'2025/06/30 16:18:01:478',27,0.344237,-0.021777,-0.068404,-0.110515,-0.243914,0.275259,0,-0.370034,0.627005,0.79926,-0.020979,0.691795,0.703713,0.004097,0.753837,0.684899,0.040348,-0.034948,0,0.238012,0,0,0,0,1,0,0,0,0,0,0,0,0,0,0
515,'2025/06/30 16:18:01:482',27,0.344237,-0.021777,-0.068404,-0.110515,-0.243914,0.275259,0,-0.370034,0.627005,0.79926,-0.020979,0.691795,0.703713,0.004097,0.753837,0.684899,0.040348,-0.034948,0,0.238012,0,0,0,0,1,0,0,0,0,0,0,0,0,0,0
516,'2025/06/30 16:18:01:489',27,0.344237,-0.021777,-0.068404,-0.110515,-0.243914,0.275259,0,-0.370034,0.627005,0.79926,-0.020979,0.691795,0.703713,0.004097,0.753837,0.684899,0.040348,-0.034948,0,0.238012,0,0,0,0,1,0,0,0,0,0,0,0,0,0,0
517,'2025/06/30 16:18:05:077',28,0.380544,-0.021777,-0.068404,-0.110515,-0.352204,0.287778,0,-0.406979,0.627005,0.79926,-0.020979,0.691795,0.703713,0.004097,0.753837,0.684899,0.040348,-0.050465,0,0.347405,0,0,0,0,1,0,0,0,0,0,0,0,0,0,0
518,'2025/06/30 16:18:05:081',28,0.380544,-0.021777,-0.068404,-0.110515,-0.352204,0.287778,0,-0.406979,0.627005,0.79926,-0.020979,0.691795,0.703713,0.004097,0.753837,0.684899,0.040348,-0.050465,0,0.347405,0,0,0,0,1,0,0,0,0,0,0,0,0,0,0
519,'2025/06/30 16:18:05:086',28,0.380544,-0.021777,-0.068404,-0.110515,-0.352204,0.287778,0,-0.406979,0.627005,0.79926,-0.020979,0.691795,0.703713,0.004097,0.753837,0.684899,0.040348,-0.050465,0,0.347405,0,0,0,0,1,0,0,0,0,0,0,0,0,0,0
520,'2025/06/30 16:18:05:092',28,0.380544,-0.021777,-0.068404,-0.110515,-0.352204,0.287778,0,-0.406979,0.627005,0.79926,-0.020979,0.691795,0.703713,0.004097,0.753837,0.684899,0.040348,-0.050465,0,0.347405,0,0,0,0,1,0,0,0,0,0,0,0,0,0,0
521,'2025/06/30 16:18:05:097',28,0.380544,-0.021777,-0.068404,-0.110515,-0.352204,0.287778,0,-0.406979,0.627005,0.79926,-0.020979,0.691795,0.703713,0.004097,0.753837,0.684899,0.040348,-0.050465,0,0.347405,0,0,0,0,1,0,0,0,0,0,0,0,0,0,0
522,'2025/06/30 16:18:05:101',28,0.380544,-0.021777,-0.068404,-0.110515,-0.352204,0.287778,0,-0.406979,0.627005,0.79926,-0.020979,0.691795,0.703713,0.004097,0.753837,0.684899,0.040348,-0.050465,0,0.347405,0,0,0,0,1,0,0,0,0,0,0,0,0,0,0
523,'2025/06/30 16:18:05:107',28,0.380544,-0.021777,-0.068404,-0.110515,-0.352204,0.287778,0,-0.406979,0.627005,0.79926,-0.020979,0.691795,0.703713,0.004097,0.753837,0.684899,0.040348,-0.050465,0,0.347405,0,0,0,0,1,0,0,0,0,0,0,0,0,0,0
524,'2025/06/30 16:18:05:111',28,0.380544,-0.021777,-0.068404,-0.110515,-0.352204,0.287778,0,-0.406979,0.627005,0.79926,-0.020979,0.691795,0.703713,0.004097,0.753837,0.684899,0.040348,-0.050465,0,0.347405,0,0,0,0,1,0,0,0,0,0,0,0,0,0,0
525,'2025/06/30 16:18:05:115',28,0.380544,-0.021777,-0.068404,-0.110515,-0.352204,0.287778,0,-0.406979,0.627005,0.79926,-0.020979,0.691795,0.703713,0.004097,0.753837,0.684899,0.040348,-0.050465,0,0.347405,0,0,0,0,1,0,0,0,0,0,0,0,0,0,0
526,'2025/06/30 16:18:05:120',28,0.380544,-0.021777,-0.068404,-0.110515,-0.352204,0.287778,0,-0.406979,0.627005,0.79926,-0.020979,0.691795,0.703713,0.004097,0.753837,0.684899,0.040348,-0.050465,0,0.347405,0,0,0,0,1,0,0,0,0,0,0,0,0,0,0
527,'2025/06/30 16:18:05:126',28,0.380544,-0.021777,-0.068404,-0.110515,-0.352204,0.287778,0,-0.406979,0.627005,0.79926,-0.020979,0.691795,0.703713,0.004097,0.753837,0.684899,0.040348,-0.050465,0,0.347405,0,0,0,0,1,0,0,0,0,0,0,0,0,0,0
528,'2025/06/30 16:18:05:131',28,0.380544,-0.021777,-0.068404,-0.110515,-0.352204,0.287778,0,-0.406979,0.627005,0.79926,-0.020979,0.691795,0.703713,0.004097,0.753837,0.684899,0.040348,-0.050465,0,0.347405,0,0,0,0,1,0,0,0,0,0,0,0,0,0,0
529,'2025/06/30 16:18:05:137',28,0.380544,-0.021777,-0.068404,-0.110515,-0.352204,0.287778,0,-0.406979,0.627005,0.79926,-0.020979,0.691795,0.703713,0.004097,0.753837,0.684899,0.040348,-0.050465,0,0.347405,0,0,0,0,1,0,0,0,0,0,0,0,0,0,0
530,'2025/06/30 16:18:05:141',28,0.380544,-0.021777,-0.068404,-0.110515,-0.352204,0.287778,0,-0.406979,0.627005,0.79926,-0.020979,0.691795,0.703713,0.004097,0.753837,0.684899,0.040348,-0.050465,0,0.347405,0,0,0,0,1,0,0,0,0,0,0,0,0,0,0
531,'2025/06/30 16:18:05:147',28,0.380544,-0.021777,-0.068404,-0.110515,-0.352204,0.287778,0,-0.406979,0.627005,0.79926,-0.020979,0.691795,0.703713,0.004097,0.753837,0.684899,0.040348,-0.050465,0,0.347405,0,0,0,0,1,0,0,0,0,0,0,0,0,0,0
532,'2025/06/30 16:18:05:153',28,0.380544,-0.021777,-0.068404,-0.110515,-0.352204,0.287778,0,-0.406979,0.627005,0.79926,-0.020979,0.691795,0.703713,0.004097,0.753837,0.684899,0.040348,-0.050465,0,0.347405,0,0,0,0,1,0,0,0,0,0,0,0,0,0,0
533,'2025/06/30 16:18:05:157',28,0.380544,-0.021777,-0.068404,-0.110515,-0.352204,0.287778,0,-0.406979,0.627005,0.79926,-0.020979,0.691795,0.703713,0.004097,0.753837,0.684899,0.040348,-0.050465,0,0.347405,0,0,0,0,1,0,0,0,0,0,0,0,0,0,0
534,'2025/06/30 16:18:05:163',28,0.380544,-0.021777,-0.068404,-0.110515,-0.352204,0.287778,0,-0.406979,0.627005,0.79926,-0.020979,0.691795,0.703713,0.004097,0.753837,0.684899,0.040348,-0.050465,0,0.347405,0,0,0,0,1,0,0,0,0,0,0,0,0,0,0
535,'2025/06/30 16:18:05:170',28,0.380544,-0.021777,-0.068404,-0.110515,-0.352204,0.287778,0,-0.406979,0.627005,0.79926,-0.020979,0.691795,0.703713,0.004097,0.753837,0.684899,0.040348,-0.050465,0,0.347405,0,0,0,0,1,0,0,0,0,0,0,0,0,0,0
536,'2025/06/30 16:18:05:174',28,0.380544,-0.021777,-0.068404,-0.110515,-0.352204,0.287778,0,-0.406979,0.627005,0.79926,-0.020979,0.691795,0.703713,0.004097,0.753837,0.684899,0.040348,-0.050465,0,0.347405,0,0,0,0,1,0,0,0,0,0,0,0,0,0,0
537,'2025/06/30 16:18:05:180',28,0.380544,-0.021777,-0.068404,-0.110515,-0.352204,0.287778,0,-0.406979,0.627005,0.79926,-0.020979,0.691795,0.703713,0.004097,0.753837,0.684899,0.040348,-0.050465,0,0.347405,0,0,0,0,1,0,0,0,0,0,0,0,0,0,0
538,'2025/06/30 16:18:05:185',28,0.380544,-0.021777,-0.068404,-0.110515,-0.352204,0.287778,0,-0.406979,0.627005,0.79926,-0.020979,0.691795,0.703713,0.004097,0.753837,0.684899,0.040348,-0.050465,0,0.347405,0,0,0,0,1,0,0,0,0,0,0,0,0,0,0
539,'2025/06/30 16:18:05:190',28,0.380544,-0.021777,-0.068404,-0.110515,-0.352204,0.287778,0,-0.406979,0.627005,0.79926,-0.020979,0.691795,0.703713,0.004097,0.753837,0.684899,0.040348,-0.050465,0,0.347405,0,0,0,0,1,0,0,0,0,0,0,0,0,0,0
540,'2025/06/30 16:18:05:195',28,0.380544,-0.021777,-0.068404,-0.110515,-0.352204,0.287778,0,-0.406979,0.627005,0.79926,-0.020979,0.691795,0.703713,0.004097,0.753837,0.684899,0.040348,-0.050465,0,0.347405,0,0,0,0,1,0,0,0,0,0,0,0,0,0,0
541,'2025/06/30 16:18:05:201',28,0.380544,-0.021777,-0.068404,-0.110515,-0.352204,0.287778,0,-0.406979,0.627005,0.79926,-0.020979,0.691795,0.703713,0.004097,0.753837,0.684899,0.040348,-0.050465,0,0.347405,0,0,0,0,1,0,0,0,0,0,0,0,0,0,0
542,'2025/06/30 16:18:05:206',28,0.380544,-0.021777,-0.068404,-0.110515,-0.352204,0.287778,0,-0.406979,0.627005,0.79926,-0.020979,0.691795,0.703713,0.004097,0.753837,0.684899,0.040348,-0.050465,0,0.347405,0,0,0,0,1,0,0,0,0,0,0,0,0,0,0
543,'2025/06/30 16:18:18:934',29,0.380544,-0.021548,-0.0695,-0.069998,-0.352204,0.287778,0,-0.406979,0.671579,0.763139,-0.024109,0.691108,0.723922,0.004926,0.652454,0.767422,0.004136,-0.050465,0,0.347405,0,0,0,0,1,0,0,0,0,0,0,0,0,0,0
544,'2025/06/30 16:18:18:940',29,0.380544,-0.021548,-0.0695,-0.069998,-0.352204,0.287778,0,-0.406979,0.671579,0.763139,-0.024109,0.691108,0.723922,0.004926,0.652454,0.767422,0.004136,-0.050465,0,0.347405,0,0,0,0,1,0,0,0,0,0,0,0,0,0,0
545,'2025/06/30 16:18:18:945',29,0.380544,-0.021548,-0.0695,-0.069998,-0.352204,0.287778,0,-0.406979,0.671579,0.763139,-0.024109,0.691108,0.723922,0.004926,0.652454,0.767422,0.004136,-0.050465,0,0.347405,0,0,0,0,1,0,0,0,0,0,0,0,0,0,0
546,'2025/06/30 16:18:18:949',29,0.380544,-0.021548,-0.0695,-0.069998,-0.352204,0.287778,0,-0.406979,0.671579,0.763139,-0.024109,0.691108,0.723922,0.004926,0.652454,0.767422,0.004136,-0.050465,0,0.347405,0,0,0,0,1,0,0,0,0,0,0,0,0,0,0
547,'2025/06/30 16:18:18:956',29,0.380544,-0.021548,-0.0695,-0.069998,-0.352204,0.287778,0,-0.406979,0.671579,0.763139,-0.024109,0.691108,0.723922,0.004926,0.652454,0.767422,0.004136,-0.050465,0,0.347405,0,0,0,0,1,0,0,0,0,0,0,0,0,0,0
548,'2025/06/30 16:18:18:960',29,0.380544,-0.021548,-0.0695,-0.069998,-0.352204,0.287778,0,-0.406979,0.671579,0.763139,-0.024109,0.691108,0.723922,0.004926,0.652454,0.767422,0.004136,-0.050465,0,0.347405,0,0,0,0,1,0,0,0,0,0,0,0,0,0,0
549,'2025/06/30 16:18:18:965',29,0.380544,-0.021548,-0.0695,-0.069998,-0.352204,0.287778,0,-0.406979,0.671579,0.763139,-0.024109,0.691108,0.723922,0.004926,0.652454,0.767422,0.004136,-0.050465,0,0.347405,0,0,0,0,1,0,0,0,0,0,0,0,0,0,0
550,'2025/06/30 16:18:18:970',29,0.380544,-0.021548,-0.0695,-0.069998,-0.352204,0.287778,0,-0.406979,0.671579,0.763139,-0.024109,0.691108,0.723922,0.004926,0.652454,0.767422,0.004136,-0.050465,0,0.347405,0,0,0,0,1,0,0,0,0,0,0,0,0,0,0
551,'2025/06/30 16:18:18:974',29,0.380544,-0.021548,-0.0695,-0.069998,-0.352204,0.287778,0,-0.406979,0.671579,0.763139,-0.024109,0.691108,0.723922,0.004926,0.652454,0.767422,0.004136,-0.050465,0,0.347405,0,0,0,0,1,0,0,0,0,0,0,0,0,0,0
552,'2025/06/30 16:18:18:980',29,0.380544,-0.021548,-0.0695,-0.069998,-0.352204,0.287778,0,-0.406979,0.671579,0.763139,-0.024109,0.691108,0.723922,0.004926,0.652454,0.767422,0.004136,-0.050465,0,0.347405,0,0,0,0,1,0,0,0,0,0,0,0,0,0,0
553,'2025/06/30 16:18:18:985',29,0.380544,-0.021548,-0.0695,-0.069998,-0.352204,0.287778,0,-0.406979,0.671579,0.763139,-0.024109,0.691108,0.723922,0.004926,0.652454,0.767422,0.004136,-0.050465,0,0.347405,0,0,0,0,1,0,0,0,0,0,0,0,0,0,0
554,'2025/06/30 16:18:18:991',29,0.380544,-0.021548,-0.0695,-0.069998,-0.352204,0.287778,0,-0.406979,0.671579,0.763139,-0.024109,0.691108,0.723922,0.004926,0.652454,0.767422,0.004136,-0.050465,0,0.347405,0,0,0,0,1,0,0,0,0,0,0,0,0,0,0
555,'2025/06/30 16:18:18:996',29,0.380544,-0.021548,-0.0695,-0.069998,-0.352204,0.287778,0,-0.406979,0.671579,0.763139,-0.024109,0.691108,0.723922,0.004926,0.652454,0.767422,0.004136,-0.050465,0,0.347405,0,0,0,0,1,0,0,0,0,0,0,0,0,0,0
556,'2025/06/30 16:18:19:002',29,0.380544,-0.021548,-0.0695,-0.069998,-0.352204,0.287778,0,-0.406979,0.671579,0.763139,-0.024109,0.691108,0.723922,0.004926,0.652454,0.767422,0.004136,-0.050465,0,0.347405,0,0,0,0,1,0,0,0,0,0,0,0,0,0,0
557,'2025/06/30 16:18:19:007',29,0.380544,-0.021548,-0.0695,-0.069998,-0.352204,0.287778,0,-0.406979,0.671579,0.763139,-0.024109,0.691108,0.723922,0.004926,0.652454,0.767422,0.004136,-0.050465,0,0.347405,0,0,0,0,1,0,0,0,0,0,0,0,0,0,0
558,'2025/06/30 16:18:19:013',29,0.380544,-0.021548,-0.0695,-0.069998,-0.352204,0.287778,0,-0.406979,0.671579,0.763139,-0.024109,0.691108,0.723922,0.004926,0.652454,0.767422,0.004136,-0.050465,0,0.347405,0,0,0,0,1,0,0,0,0,0,0,0,0,0,0
559,'2025/06/30 16:18:19:019',29,0.380544,-0.021548,-0.0695,-0.069998,-0.352204,0.287778,0,-0.406979,0.671579,0.763139,-0.024109,0.691108,0.723922,0.004926,0.652454,0.767422,0.004136,-0.050465,0,0.347405,0,0,0,0,1,0,0,0,0,0,0,0,0,0,0
560,'2025/06/30 16:18:19:025',29,0.380544,-0.021548,-0.0695,-0.069998,-0.352204,0.287778,0,-0.406979,0.671579,0.763139,-0.024109,0.691108,0.723922,0.004926,0.652454,0.767422,0.004136,-0.050465,0,0.347405,0,0,0,0,1,0,0,0,0,0,0,0,0,0,0
561,'2025/06/30 16:18:19:030',29,0.380544,-0.021548,-0.0695,-0.069998,-0.352204,0.287778,0,-0.406979,0.671579,0.763139,-0.024109,0.691108,0.723922,0.004926,0.652454,0.767422,0.004136,-0.050465,0,0.347405,0,0,0,0,1,0,0,0,0,0,0,0,0,0,0
562,'2025/06/30 16:18:19:036',29,0.380544,-0.021548,-0.0695,-0.069998,-0.352204,0.287778,0,-0.406979,0.671579,0.763139,-0.024109,0.691108,0.723922,0.004926,0.652454,0.767422,0.004136,-0.050465,0,0.347405,0,0,0,0,1,0,0,0,0,0,0,0,0,0,0
563,'2025/06/30 16:18:19:042',29,0.380544,-0.021548,-0.0695,-0.069998,-0.352204,0.287778,0,-0.406979,0.671579,0.763139,-0.024109,0.691108,0.723922,0.004926,0.652454,0.767422,0.004136,-0.050465,0,0.347405,0,0,0,0,1,0,0,0,0,0,0,0,0,0,0
564,'2025/06/30 16:18:19:048',29,0.380544,-0.021548,-0.0695,-0.069998,-0.352204,0.287778,0,-0.406979,0.671579,0.763139,-0.024109,0.691108,0.723922,0.004926,0.652454,0.767422,0.004136,-0.050465,0,0.347405,0,0,0,0,1,0,0,0,0,0,0,0,0,0,0
565,'2025/06/30 16:18:19:055',29,0.380544,-0.021548,-0.0695,-0.069998,-0.352204,0.287778,0,-0.406979,0.671579,0.763139,-0.024109,0.691108,0.723922,0.004926,0.652454,0.767422,0.004136,-0.050465,0,0.347405,0,0,0,0,1,0,0,0,0,0,0,0,0,0,0
566,'2025/06/30 16:18:25:230',30,0.380544,-0.021548,-0.0695,-0.069998,-0.284171,0.287778,0,-0.406979,0.671579,0.763139,-0.024109,0.691108,0.723922,0.004926,0.652454,0.767422,0.004136,-0.040717,0,0.278667,0,0,0,0,1,0,0,0,0,0,0,0,0,0,0
567,'2025/06/30 16:18:25:237',30,0.380544,-0.021548,-0.0695,-0.069998,-0.284171,0.287778,0,-0.406979,0.671579,0.763139,-0.024109,0.691108,0.723922,0.004926,0.652454,0.767422,0.004136,-0.040717,0,0.278667,0,0,0,0,1,0,0,0,0,0,0,0,0,0,0
568,'2025/06/30 16:18:25:242',30,0.380544,-0.021548,-0.0695,-0.069998,-0.284171,0.287778,0,-0.406979,0.671579,0.763139,-0.024109,0.691108,0.723922,0.004926,0.652454,0.767422,0.004136,-0.040717,0,0.278667,0,0,0,0,1,0,0,0,0,0,0,0,0,0,0
569,'2025/06/30 16:18:25:246',30,0.380544,-0.021548,-0.0695,-0.069998,-0.284171,0.287778,0,-0.406979,0.671579,0.763139,-0.024109,0.691108,0.723922,0.004926,0.652454,0.767422,0.004136,-0.040717,0,0.278667,0,0,0,0,1,0,0,0,0,0,0,0,0,0,0
570,'2025/06/30 16:18:25:251',30,0.380544,-0.021548,-0.0695,-0.069998,-0.284171,0.287778,0,-0.406979,0.671579,0.763139,-0.024109,0.691108,0.723922,0.004926,0.652454,0.767422,0.004136,-0.040717,0,0.278667,0,0,0,0,1,0,0,0,0,0,0,0,0,0,0
571,'2025/06/30 16:18:25:256',30,0.380544,-0.021548,-0.0695,-0.069998,-0.284171,0.287778,0,-0.406979,0.671579,0.763139,-0.024109,0.691108,0.723922,0.004926,0.652454,0.767422,0.004136,-0.040717,0,0.278667,0,0,0,0,1,0,0,0,0,0,0,0,0,0,0
572,'2025/06/30 16:18:25:261',30,0.380544,-0.021548,-0.0695,-0.069998,-0.284171,0.287778,0,-0.406979,0.671579,0.763139,-0.024109,0.691108,0.723922,0.004926,0.652454,0.767422,0.004136,-0.040717,0,0.278667,0,0,0,0,1,0,0,0,0,0,0,0,0,0,0
573,'2025/06/30 16:18:25:267',30,0.380544,-0.021548,-0.0695,-0.069998,-0.284171,0.287778,0,-0.406979,0.671579,0.763139,-0.024109,0.691108,0.723922,0.004926,0.652454,0.767422,0.004136,-0.040717,0,0.278667,0,0,0,0,1,0,0,0,0,0,0,0,0,0,0
574,'2025/06/30 16:18:25:272',30,0.380544,-0.021548,-0.0695,-0.069998,-0.284171,0.287778,0,-0.406979,0.671579,0.763139,-0.024109,0.691108,0.723922,0.004926,0.652454,0.767422,0.004136,-0.040717,0,0.278667,0,0,0,0,1,0,0,0,0,0,0,0,0,0,0
575,'2025/06/30 16:18:25:278',30,0.380544,-0.021548,-0.0695,-0.069998,-0.284171,0.287778,0,-0.406979,0.671579,0.763139,-0.024109,0.691108,0.723922,0.004926,0.652454,0.767422,0.004136,-0.040717,0,0.278667,0,0,0,0,1,0,0,0,0,0,0,0,0,0,0
576,'2025/06/30 16:18:25:283',30,0.380544,-0.021548,-0.0695,-0.069998,-0.284171,0.287778,0,-0.406979,0.671579,0.763139,-0.024109,0.691108,0.723922,0.004926,0.652454,0.767422,0.004136,-0.040717,0,0.278667,0,0,0,0,1,0,0,0,0,0,0,0,0,0,0
577,'2025/06/30 16:18:25:288',30,0.380544,-0.021548,-0.0695,-0.069998,-0.284171,0.287778,0,-0.406979,0.671579,0.763139,-0.024109,0.691108,0.723922,0.004926,0.652454,0.767422,0.004136,-0.040717,0,0.278667,0,0,0,0,1,0,0,0,0,0,0,0,0,0,0
578,'2025/06/30 16:18:25:294',30,0.380544,-0.021548,-0.0695,-0.069998,-0.284171,0.287778,0,-0.406979,0.671579,0.763139,-0.024109,0.691108,0.723922,0.004926,0.652454,0.767422,0.004136,-0.040717,0,0.278667,0,0,0,0,1,0,0,0,0,0,0,0,0,0,0
579,'2025/06/30 16:18:25:302',30,0.380544,-0.021548,-0.0695,-0.069998,-0.284171,0.287778,0,-0.406979,0.671579,0.763139,-0.024109,0.691108,0.723922,0.004926,0.652454,0.767422,0.004136,-0.040717,0,0.278667,0,0,0,0,1,0,0,0,0,0,0,0,0,0,0
580,'2025/06/30 16:18:25:308',30,0.380544,-0.021548,-0.0695,-0.069998,-0.284171,0.287778,0,-0.406979,0.671579,0.763139,-0.024109,0.691108,0.723922,0.004926,0.652454,0.767422,0.004136,-0.040717,0,0.278667,0,0,0,0,1,0,0,0,0,0,0,0,0,0,0
581,'2025/06/30 16:18:25:313',30,0.380544,-0.021548,-0.0695,-0.069998,-0.284171,0.287778,0,-0.406979,0.671579,0.763139,-0.024109,0.691108,0.723922,0.004926,0.652454,0.767422,0.004136,-0.040717,0,0.278667,0,0,0,0,1,0,0,0,0,0,0,0,0,0,0
582,'2025/06/30 16:18:25:320',30,0.380544,-0.021548,-0.0695,-0.069998,-0.284171,0.287778,0,-0.406979,0.671579,0.763139,-0.024109,0.691108,0.723922,0.004926,0.652454,0.767422,0.004136,-0.040717,0,0.278667,0,0,0,0,1,0,0,0,0,0,0,0,0,0,0
583,'2025/06/30 16:18:25:325',30,0.380544,-0.021548,-0.0695,-0.069998,-0.284171,0.287778,0,-0.406979,0.671579,0.763139,-0.024109,0.691108,0.723922,0.004926,0.652454,0.767422,0.004136,-0.040717,0,0.278667,0,0,0,0,1,0,0,0,0,0,0,0,0,0,0
584,'2025/06/30 16:18:25:331',30,0.380544,-0.021548,-0.0695,-0.069998,-0.284171,0.287778,0,-0.406979,0.671579,0.763139,-0.024109,0.691108,0.723922,0.004926,0.652454,0.767422,0.004136,-0.040717,0,0.278667,0,0,0,0,1,0,0,0,0,0,0,0,0,0,0
585,'2025/06/30 16:18:25:336',30,0.380544,-0.021548,-0.0695,-0.069998,-0.284171,0.287778,0,-0.406979,0.671579,0.763139,-0.024109,0.691108,0.723922,0.004926,0.652454,0.767422,0.004136,-0.040717,0,0.278667,0,0,0,0,1,0,0,0,0,0,0,0,0,0,0
586,'2025/06/30 16:18:25:342',30,0.380544,-0.021548,-0.0695,-0.069998,-0.284171,0.287778,0,-0.406979,0.671579,0.763139,-0.024109,0.691108,0.723922,0.004926,0.652454,0.767422,0.004136,-0.040717,0,0.278667,0,0,0,0,1,0,0,0,0,0,0,0,0,0,0
587,'2025/06/30 16:18:25:348',30,0.380544,-0.021548,-0.0695,-0.069998,-0.284171,0.287778,0,-0.406979,0.671579,0.763139,-0.024109,0.691108,0.723922,0.004926,0.652454,0.767422,0.004136,-0.040717,0,0.278667,0,0,0,0,1,0,0,0,0,0,0,0,0,0,0
588,'2025/06/30 16:18:25:354',30,0.380544,-0.021548,-0.0695,-0.069998,-0.284171,0.287778,0,-0.406979,0.671579,0.763139,-0.024109,0.691108,0.723922,0.004926,0.652454,0.767422,0.004136,-0.040717,0,0.278667,0,0,0,0,1,0,0,0,0,0,0,0,0,0,0
589,'2025/06/30 16:18:28:000',31,0.33595,-0.021548,-0.0695,-0.069998,-0.284171,0.261427,0,-0.360841,0.671579,0.763139,-0.024109,0.691108,0.723922,0.004926,0.652454,0.767422,0.004136,-0.040717,0,0.278667,0,0,0,0,1,0,0,0,0,0,0,0,0,0,0
590,'2025/06/30 16:18:28:005',31,0.33595,-0.021548,-0.0695,-0.069998,-0.284171,0.261427,0,-0.360841,0.671579,0.763139,-0.024109,0.691108,0.723922,0.004926,0.652454,0.767422,0.004136,-0.040717,0,0.278667,0,0,0,0,1,0,0,0,0,0,0,0,0,0,0
591,'2025/06/30 16:18:28:010',31,0.33595,-0.021548,-0.0695,-0.069998,-0.284171,0.261427,0,-0.360841,0.671579,0.763139,-0.024109,0.691108,0.723922,0.004926,0.652454,0.767422,0.004136,-0.040717,0,0.278667,0,0,0,0,1,0,0,0,0,0,0,0,0,0,0
592,'2025/06/30 16:18:28:015',31,0.33595,-0.021548,-0.0695,-0.069998,-0.284171,0.261427,0,-0.360841,0.671579,0.763139,-0.024109,0.691108,0.723922,0.004926,0.652454,0.767422,0.004136,-0.040717,0,0.278667,0,0,0,0,1,0,0,0,0,0,0,0,0,0,0
593,'2025/06/30 16:18:28:021',31,0.33595,-0.021548,-0.0695,-0.069998,-0.284171,0.261427,0,-0.360841,0.671579,0.763139,-0.024109,0.691108,0.723922,0.004926,0.652454,0.767422,0.004136,-0.040717,0,0.278667,0,0,0,0,1,0,0,0,0,0,0,0,0,0,0
594,'2025/06/30 16:18:28:027',31,0.33595,-0.021548,-0.0695,-0.069998,-0.284171,0.261427,0,-0.360841,0.671579,0.763139,-0.024109,0.691108,0.723922,0.004926,0.652454,0.767422,0.004136,-0.040717,0,0.278667,0,0,0,0,1,0,0,0,0,0,0,0,0,0,0
595,'2025/06/30 16:18:28:032',31,0.33595,-0.021548,-0.0695,-0.069998,-0.284171,0.261427,0,-0.360841,0.671579,0.763139,-0.024109,0.691108,0.723922,0.004926,0.652454,0.767422,0.004136,-0.040717,0,0.278667,0,0,0,0,1,0,0,0,0,0,0,0,0,0,0
596,'2025/06/30 16:18:28:037',31,0.33595,-0.021548,-0.0695,-0.069998,-0.284171,0.261427,0,-0.360841,0.671579,0.763139,-0.024109,0.691108,0.723922,0.004926,0.652454,0.767422,0.004136,-0.040717,0,0.278667,0,0,0,0,1,0,0,0,0,0,0,0,0,0,0
597,'2025/06/30 16:18:28:043',31,0.33595,-0.021548,-0.0695,-0.069998,-0.284171,0.261427,0,-0.360841,0.671579,0.763139,-0.024109,0.691108,0.723922,0.004926,0.652454,0.767422,0.004136,-0.040717,0,0.278667,0,0,0,0,1,0,0,0,0,0,0,0,0,0,0
598,'2025/06/30 16:18:28:048',31,0.33595,-0.021548,-0.0695,-0.069998,-0.284171,0.261427,0,-0.360841,0.671579,0.763139,-0.024109,0.691108,0.723922,0.004926,0.652454,0.767422,0.004136,-0.040717,0,0.278667,0,0,0,0,1,0,0,0,0,0,0,0,0,0,0
599,'2025/06/30 16:18:28:054',31,0.33595,-0.021548,-0.0695,-0.069998,-0.284171,0.261427,0,-0.360841,0.671579,0.763139,-0.024109,0.691108,0.723922,0.004926,0.652454,0.767422,0.004136,-0.040717,0,0.278667,0,0,0,0,1,0,0,0,0,0,0,0,0,0,0
600,'2025/06/30 16:18:28:059',31,0.33595,-0.021548,-0.0695,-0.069998,-0.284171,0.261427,0,-0.360841,0.671579,0.763139,-0.024109,0.691108,0.723922,0.004926,0.652454,0.767422,0.004136,-0.040717,0,0.278667,0,0,0,0,1,0,0,0,0,0,0,0,0,0,0
601,'2025/06/30 16:18:28:064',31,0.33595,-0.021548,-0.0695,-0.069998,-0.284171,0.261427,0,-0.360841,0.671579,0.763139,-0.024109,0.691108,0.723922,0.004926,0.652454,0.767422,0.004136,-0.040717,0,0.278667,0,0,0,0,1,0,0,0,0,0,0,0,0,0,0
602,'2025/06/30 16:18:28:068',31,0.33595,-0.021548,-0.0695,-0.069998,-0.284171,0.261427,0,-0.360841,0.671579,0.763139,-0.024109,0.691108,0.723922,0.004926,0.652454,0.767422,0.004136,-0.040717,0,0.278667,0,0,0,0,1,0,0,0,0,0,0,0,0,0,0
603,'2025/06/30 16:18:28:074',31,0.33595,-0.021548,-0.0695,-0.069998,-0.284171,0.261427,0,-0.360841,0.671579,0.763139,-0.024109,0.691108,0.723922,0.004926,0.652454,0.767422,0.004136,-0.040717,0,0.278667,0,0,0,0,1,0,0,0,0,0,0,0,0,0,0
604,'2025/06/30 16:18:28:080',31,0.33595,-0.021548,-0.0695,-0.069998,-0.284171,0.261427,0,-0.360841,0.671579,0.763139,-0.024109,0.691108,0.723922,0.004926,0.652454,0.767422,0.004136,-0.040717,0,0.278667,0,0,0,0,1,0,0,0,0,0,0,0,0,0,0
605,'2025/06/30 16:18:28:085',31,0.33595,-0.021548,-0.0695,-0.069998,-0.284171,0.261427,0,-0.360841,0.671579,0.763139,-0.024109,0.691108,0.723922,0.004926,0.652454,0.767422,0.004136,-0.040717,0,0.278667,0,0,0,0,1,0,0,0,0,0,0,0,0,0,0
606,'2025/06/30 16:18:28:090',31,0.33595,-0.021548,-0.0695,-0.069998,-0.284171,0.261427,0,-0.360841,0.671579,0.763139,-0.024109,0.691108,0.723922,0.004926,0.652454,0.767422,0.004136,-0.040717,0,0.278667,0,0,0,0,1,0,0,0,0,0,0,0,0,0,0
607,'2025/06/30 16:18:28:096',31,0.33595,-0.021548,-0.0695,-0.069998,-0.284171,0.261427,0,-0.360841,0.671579,0.763139,-0.024109,0.691108,0.723922,0.004926,0.652454,0.767422,0.004136,-0.040717,0,0.278667,0,0,0,0,1,0,0,0,0,0,0,0,0,0,0
608,'2025/06/30 16:18:28:101',31,0.33595,-0.021548,-0.0695,-0.069998,-0.284171,0.261427,0,-0.360841,0.671579,0.763139,-0.024109,0.691108,0.723922,0.004926,0.652454,0.767422,0.004136,-0.040717,0,0.278667,0,0,0,0,1,0,0,0,0,0,0,0,0,0,0
609,'2025/06/30 16:18:28:107',31,0.33595,-0.021548,-0.0695,-0.069998,-0.284171,0.261427,0,-0.360841,0.671579,0.763139,-0.024109,0.691108,0.723922,0.004926,0.652454,0.767422,0.004136,-0.040717,0,0.278667,0,0,0,0,1,0,0,0,0,0,0,0,0,0,0
610,'2025/06/30 16:18:28:112',31,0.33595,-0.021548,-0.0695,-0.069998,-0.284171,0.261427,0,-0.360841,0.671579,0.763139,-0.024109,0.691108,0.723922,0.004926,0.652454,0.767422,0.004136,-0.040717,0,0.278667,0,0,0,0,1,0,0,0,0,0,0,0,0,0,0
611,'2025/06/30 16:18:28:119',31,0.33595,-0.021548,-0.0695,-0.069998,-0.284171,0.261427,0,-0.360841,0.671579,0.763139,-0.024109,0.691108,0.723922,0.004926,0.652454,0.767422,0.004136,-0.040717,0,0.278667,0,0,0,0,1,0,0,0,0,0,0,0,0,0,0
612,'2025/06/30 16:18:28:123',31,0.33595,-0.021548,-0.0695,-0.069998,-0.284171,0.261427,0,-0.360841,0.671579,0.763139,-0.024109,0.691108,0.723922,0.004926,0.652454,0.767422,0.004136,-0.040717,0,0.278667,0,0,0,0,1,0,0,0,0,0,0,0,0,0,0
613,'2025/06/30 16:18:28:128',31,0.33595,-0.021548,-0.0695,-0.069998,-0.284171,0.261427,0,-0.360841,0.671579,0.763139,-0.024109,0.691108,0.723922,0.004926,0.652454,0.767422,0.004136,-0.040717,0,0.278667,0,0,0,0,1,0,0,0,0,0,0,0,0,0,0
614,'2025/06/30 16:18:28:133',31,0.33595,-0.021548,-0.0695,-0.069998,-0.284171,0.261427,0,-0.360841,0.671579,0.763139,-0.024109,0.691108,0.723922,0.004926,0.652454,0.767422,0.004136,-0.040717,0,0.278667,0,0,0,0,1,0,0,0,0,0,0,0,0,0,0
615,'2025/06/30 16:18:28:140',31,0.33595,-0.021548,-0.0695,-0.069998,-0.284171,0.261427,0,-0.360841,0.671579,0.763139,-0.024109,0.691108,0.723922,0.004926,0.652454,0.767422,0.004136,-0.040717,0,0.278667,0,0,0,0,1,0,0,0,0,0,0,0,0,0,0
616,'2025/06/30 16:18:30:752',32,0.33595,-0.021548,-0.0695,-0.069998,-0.219314,0.261427,0,-0.360841,0.671579,0.763139,-0.024109,0.691108,0.723922,0.004926,0.652454,0.767422,0.004136,-0.031424,0,0.213177,0,0,0,0,1,0,0,0,0,0,0,0,0,0,0
617,'2025/06/30 16:18:30:758',32,0.33595,-0.021548,-0.0695,-0.069998,-0.219314,0.261427,0,-0.360841,0.671579,0.763139,-0.024109,0.691108,0.723922,0.004926,0.652454,0.767422,0.004136,-0.031424,0,0.213177,0,0,0,0,1,0,0,0,0,0,0,0,0,0,0
618,'2025/06/30 16:18:30:765',32,0.33595,-0.021548,-0.0695,-0.069998,-0.219314,0.261427,0,-0.360841,0.671579,0.763139,-0.024109,0.691108,0.723922,0.004926,0.652454,0.767422,0.004136,-0.031424,0,0.213177,0,0,0,0,1,0,0,0,0,0,0,0,0,0,0
619,'2025/06/30 16:18:30:770',32,0.33595,-0.021548,-0.0695,-0.069998,-0.219314,0.261427,0,-0.360841,0.671579,0.763139,-0.024109,0.691108,0.723922,0.004926,0.652454,0.767422,0.004136,-0.031424,0,0.213177,0,0,0,0,1,0,0,0,0,0,0,0,0,0,0
620,'2025/06/30 16:18:30:776',32,0.33595,-0.021548,-0.0695,-0.069998,-0.219314,0.261427,0,-0.360841,0.671579,0.763139,-0.024109,0.691108,0.723922,0.004926,0.652454,0.767422,0.004136,-0.031424,0,0.213177,0,0,0,0,1,0,0,0,0,0,0,0,0,0,0
621,'2025/06/30 16:18:30:780',32,0.33595,-0.021548,-0.0695,-0.069998,-0.219314,0.261427,0,-0.360841,0.671579,0.763139,-0.024109,0.691108,0.723922,0.004926,0.652454,0.767422,0.004136,-0.031424,0,0.213177,0,0,0,0,1,0,0,0,0,0,0,0,0,0,0
622,'2025/06/30 16:18:30:785',32,0.33595,-0.021548,-0.0695,-0.069998,-0.219314,0.261427,0,-0.360841,0.671579,0.763139,-0.024109,0.691108,0.723922,0.004926,0.652454,0.767422,0.004136,-0.031424,0,0.213177,0,0,0,0,1,0,0,0,0,0,0,0,0,0,0
623,'2025/06/30 16:18:30:788',32,0.33595,-0.021548,-0.0695,-0.069998,-0.219314,0.261427,0,-0.360841,0.671579,0.763139,-0.024109,0.691108,0.723922,0.004926,0.652454,0.767422,0.004136,-0.031424,0,0.213177,0,0,0,0,1,0,0,0,0,0,0,0,0,0,0
624,'2025/06/30 16:18:30:794',32,0.33595,-0.021548,-0.0695,-0.069998,-0.219314,0.261427,0,-0.360841,0.671579,0.763139,-0.024109,0.691108,0.723922,0.004926,0.652454,0.767422,0.004136,-0.031424,0,0.213177,0,0,0,0,1,0,0,0,0,0,0,0,0,0,0
625,'2025/06/30 16:18:30:800',32,0.33595,-0.021548,-0.0695,-0.069998,-0.219314,0.261427,0,-0.360841,0.671579,0.763139,-0.024109,0.691108,0.723922,0.004926,0.652454,0.767422,0.004136,-0.031424,0,0.213177,0,0,0,0,1,0,0,0,0,0,0,0,0,0,0
626,'2025/06/30 16:18:30:807',32,0.33595,-0.021548,-0.0695,-0.069998,-0.219314,0.261427,0,-0.360841,0.671579,0.763139,-0.024109,0.691108,0.723922,0.004926,0.652454,0.767422,0.004136,-0.031424,0,0.213177,0,0,0,0,1,0,0,0,0,0,0,0,0,0,0
627,'2025/06/30 16:18:30:812',32,0.33595,-0.021548,-0.0695,-0.069998,-0.219314,0.261427,0,-0.360841,0.671579,0.763139,-0.024109,0.691108,0.723922,0.004926,0.652454,0.767422,0.004136,-0.031424,0,0.213177,0,0,0,0,1,0,0,0,0,0,0,0,0,0,0
628,'2025/06/30 16:18:30:818',32,0.33595,-0.021548,-0.0695,-0.069998,-0.219314,0.261427,0,-0.360841,0.671579,0.763139,-0.024109,0.691108,0.723922,0.004926,0.652454,0.767422,0.004136,-0.031424,0,0.213177,0,0,0,0,1,0,0,0,0,0,0,0,0,0,0
629,'2025/06/30 16:18:30:822',32,0.33595,-0.021548,-0.0695,-0.069998,-0.219314,0.261427,0,-0.360841,0.671579,0.763139,-0.024109,0.691108,0.723922,0.004926,0.652454,0.767422,0.004136,-0.031424,0,0.213177,0,0,0,0,1,0,0,0,0,0,0,0,0,0,0
630,'2025/06/30 16:18:30:829',32,0.33595,-0.021548,-0.0695,-0.069998,-0.219314,0.261427,0,-0.360841,0.671579,0.763139,-0.024109,0.691108,0.723922,0.004926,0.652454,0.767422,0.004136,-0.031424,0,0.213177,0,0,0,0,1,0,0,0,0,0,0,0,0,0,0
631,'2025/06/30 16:18:30:833',32,0.33595,-0.021548,-0.0695,-0.069998,-0.219314,0.261427,0,-0.360841,0.671579,0.763139,-0.024109,0.691108,0.723922,0.004926,0.652454,0.767422,0.004136,-0.031424,0,0.213177,0,0,0,0,1,0,0,0,0,0,0,0,0,0,0
632,'2025/06/30 16:18:30:838',32,0.33595,-0.021548,-0.0695,-0.069998,-0.219314,0.261427,0,-0.360841,0.671579,0.763139,-0.024109,0.691108,0.723922,0.004926,0.652454,0.767422,0.004136,-0.031424,0,0.213177,0,0,0,0,1,0,0,0,0,0,0,0,0,0,0
633,'2025/06/30 16:18:30:844',32,0.33595,-0.021548,-0.0695,-0.069998,-0.219314,0.261427,0,-0.360841,0.671579,0.763139,-0.024109,0.691108,0.723922,0.004926,0.652454,0.767422,0.004136,-0.031424,0,0.213177,0,0,0,0,1,0,0,0,0,0,0,0,0,0,0
634,'2025/06/30 16:18:30:849',32,0.33595,-0.021548,-0.0695,-0.069998,-0.219314,0.261427,0,-0.360841,0.671579,0.763139,-0.024109,0.691108,0.723922,0.004926,0.652454,0.767422,0.004136,-0.031424,0,0.213177,0,0,0,0,1,0,0,0,0,0,0,0,0,0,0
635,'2025/06/30 16:18:30:855',32,0.33595,-0.021548,-0.0695,-0.069998,-0.219314,0.261427,0,-0.360841,0.671579,0.763139,-0.024109,0.691108,0.723922,0.004926,0.652454,0.767422,0.004136,-0.031424,0,0.213177,0,0,0,0,1,0,0,0,0,0,0,0,0,0,0
636,'2025/06/30 16:18:30:860',32,0.33595,-0.021548,-0.0695,-0.069998,-0.219314,0.261427,0,-0.360841,0.671579,0.763139,-0.024109,0.691108,0.723922,0.004926,0.652454,0.767422,0.004136,-0.031424,0,0.213177,0,0,0,0,1,0,0,0,0,0,0,0,0,0,0
637,'2025/06/30 16:18:30:865',32,0.33595,-0.021548,-0.0695,-0.069998,-0.219314,0.261427,0,-0.360841,0.671579,0.763139,-0.024109,0.691108,0.723922,0.004926,0.652454,0.767422,0.004136,-0.031424,0,0.213177,0,0,0,0,1,0,0,0,0,0,0,0,0,0,0
638,'2025/06/30 16:18:30:870',32,0.33595,-0.021548,-0.0695,-0.069998,-0.219314,0.261427,0,-0.360841,0.671579,0.763139,-0.024109,0.691108,0.723922,0.004926,0.652454,0.767422,0.004136,-0.031424,0,0.213177,0,0,0,0,1,0,0,0,0,0,0,0,0,0,0
639,'2025/06/30 16:18:43:688',33,0.33595,-0.018143,-0.051662,-0.053052,-0.219314,0.261427,0,-0.360841,0.570524,0.840307,-0.02141,0.548858,0.840866,-0.007158,0.523543,0.85468,-0.00811,-0.031424,0,0.213177,0,0,0,0,1,0,0,0,0,0,0,0,0,0,0
640,'2025/06/30 16:18:43:693',33,0.33595,-0.018143,-0.051662,-0.053052,-0.219314,0.261427,0,-0.360841,0.570524,0.840307,-0.02141,0.548858,0.840866,-0.007158,0.523543,0.85468,-0.00811,-0.031424,0,0.213177,0,0,0,0,1,0,0,0,0,0,0,0,0,0,0
641,'2025/06/30 16:18:43:698',33,0.33595,-0.018143,-0.051662,-0.053052,-0.219314,0.261427,0,-0.360841,0.570524,0.840307,-0.02141,0.548858,0.840866,-0.007158,0.523543,0.85468,-0.00811,-0.031424,0,0.213177,0,0,0,0,1,0,0,0,0,0,0,0,0,0,0
642,'2025/06/30 16:18:43:703',33,0.33595,-0.018143,-0.051662,-0.053052,-0.219314,0.261427,0,-0.360841,0.570524,0.840307,-0.02141,0.548858,0.840866,-0.007158,0.523543,0.85468,-0.00811,-0.031424,0,0.213177,0,0,0,0,1,0,0,0,0,0,0,0,0,0,0
643,'2025/06/30 16:18:43:707',33,0.33595,-0.018143,-0.051662,-0.053052,-0.219314,0.261427,0,-0.360841,0.570524,0.840307,-0.02141,0.548858,0.840866,-0.007158,0.523543,0.85468,-0.00811,-0.031424,0,0.213177,0,0,0,0,1,0,0,0,0,0,0,0,0,0,0
644,'2025/06/30 16:18:43:711',33,0.33595,-0.018143,-0.051662,-0.053052,-0.219314,0.261427,0,-0.360841,0.570524,0.840307,-0.02141,0.548858,0.840866,-0.007158,0.523543,0.85468,-0.00811,-0.031424,0,0.213177,0,0,0,0,1,0,0,0,0,0,0,0,0,0,0
645,'2025/06/30 16:18:43:717',33,0.33595,-0.018143,-0.051662,-0.053052,-0.219314,0.261427,0,-0.360841,0.570524,0.840307,-0.02141,0.548858,0.840866,-0.007158,0.523543,0.85468,-0.00811,-0.031424,0,0.213177,0,0,0,0,1,0,0,0,0,0,0,0,0,0,0
646,'2025/06/30 16:18:43:722',33,0.33595,-0.018143,-0.051662,-0.053052,-0.219314,0.261427,0,-0.360841,0.570524,0.840307,-0.02141,0.548858,0.840866,-0.007158,0.523543,0.85468,-0.00811,-0.031424,0,0.213177,0,0,0,0,1,0,0,0,0,0,0,0,0,0,0
647,'2025/06/30 16:18:43:728',33,0.33595,-0.018143,-0.051662,-0.053052,-0.219314,0.261427,0,-0.360841,0.570524,0.840307,-0.02141,0.548858,0.840866,-0.007158,0.523543,0.85468,-0.00811,-0.031424,0,0.213177,0,0,0,0,1,0,0,0,0,0,0,0,0,0,0
648,'2025/06/30 16:18:43:733',33,0.33595,-0.018143,-0.051662,-0.053052,-0.219314,0.261427,0,-0.360841,0.570524,0.840307,-0.02141,0.548858,0.840866,-0.007158,0.523543,0.85468,-0.00811,-0.031424,0,0.213177,0,0,0,0,1,0,0,0,0,0,0,0,0,0,0
649,'2025/06/30 16:18:43:737',33,0.33595,-0.018143,-0.051662,-0.053052,-0.219314,0.261427,0,-0.360841,0.570524,0.840307,-0.02141,0.548858,0.840866,-0.007158,0.523543,0.85468,-0.00811,-0.031424,0,0.213177,0,0,0,0,1,0,0,0,0,0,0,0,0,0,0
650,'2025/06/30 16:18:43:744',33,0.33595,-0.018143,-0.051662,-0.053052,-0.219314,0.261427,0,-0.360841,0.570524,0.840307,-0.02141,0.548858,0.840866,-0.007158,0.523543,0.85468,-0.00811,-0.031424,0,0.213177,0,0,0,0,1,0,0,0,0,0,0,0,0,0,0
651,'2025/06/30 16:18:43:748',33,0.33595,-0.018143,-0.051662,-0.053052,-0.219314,0.261427,0,-0.360841,0.570524,0.840307,-0.02141,0.548858,0.840866,-0.007158,0.523543,0.85468,-0.00811,-0.031424,0,0.213177,0,0,0,0,1,0,0,0,0,0,0,0,0,0,0
652,'2025/06/30 16:18:43:754',33,0.33595,-0.018143,-0.051662,-0.053052,-0.219314,0.261427,0,-0.360841,0.570524,0.840307,-0.02141,0.548858,0.840866,-0.007158,0.523543,0.85468,-0.00811,-0.031424,0,0.213177,0,0,0,0,1,0,0,0,0,0,0,0,0,0,0
653,'2025/06/30 16:18:43:761',33,0.33595,-0.018143,-0.051662,-0.053052,-0.219314,0.261427,0,-0.360841,0.570524,0.840307,-0.02141,0.548858,0.840866,-0.007158,0.523543,0.85468,-0.00811,-0.031424,0,0.213177,0,0,0,0,1,0,0,0,0,0,0,0,0,0,0
654,'2025/06/30 16:18:43:765',33,0.33595,-0.018143,-0.051662,-0.053052,-0.219314,0.261427,0,-0.360841,0.570524,0.840307,-0.02141,0.548858,0.840866,-0.007158,0.523543,0.85468,-0.00811,-0.031424,0,0.213177,0,0,0,0,1,0,0,0,0,0,0,0,0,0,0
655,'2025/06/30 16:18:43:771',33,0.33595,-0.018143,-0.051662,-0.053052,-0.219314,0.261427,0,-0.360841,0.570524,0.840307,-0.02141,0.548858,0.840866,-0.007158,0.523543,0.85468,-0.00811,-0.031424,0,0.213177,0,0,0,0,1,0,0,0,0,0,0,0,0,0,0
656,'2025/06/30 16:18:43:774',33,0.33595,-0.018143,-0.051662,-0.053052,-0.219314,0.261427,0,-0.360841,0.570524,0.840307,-0.02141,0.548858,0.840866,-0.007158,0.523543,0.85468,-0.00811,-0.031424,0,0.213177,0,0,0,0,1,0,0,0,0,0,0,0,0,0,0
657,'2025/06/30 16:18:43:780',33,0.33595,-0.018143,-0.051662,-0.053052,-0.219314,0.261427,0,-0.360841,0.570524,0.840307,-0.02141,0.548858,0.840866,-0.007158,0.523543,0.85468,-0.00811,-0.031424,0,0.213177,0,0,0,0,1,0,0,0,0,0,0,0,0,0,0
658,'2025/06/30 16:18:43:786',33,0.33595,-0.018143,-0.051662,-0.053052,-0.219314,0.261427,0,-0.360841,0.570524,0.840307,-0.02141,0.548858,0.840866,-0.007158,0.523543,0.85468,-0.00811,-0.031424,0,0.213177,0,0,0,0,1,0,0,0,0,0,0,0,0,0,0
659,'2025/06/30 16:18:43:791',33,0.33595,-0.018143,-0.051662,-0.053052,-0.219314,0.261427,0,-0.360841,0.570524,0.840307,-0.02141,0.548858,0.840866,-0.007158,0.523543,0.85468,-0.00811,-0.031424,0,0.213177,0,0,0,0,1,0,0,0,0,0,0,0,0,0,0
660,'2025/06/30 16:18:43:796',33,0.33595,-0.018143,-0.051662,-0.053052,-0.219314,0.261427,0,-0.360841,0.570524,0.840307,-0.02141,0.548858,0.840866,-0.007158,0.523543,0.85468,-0.00811,-0.031424,0,0.213177,0,0,0,0,1,0,0,0,0,0,0,0,0,0,0
661,'2025/06/30 16:18:43:801',33,0.33595,-0.018143,-0.051662,-0.053052,-0.219314,0.261427,0,-0.360841,0.570524,0.840307,-0.02141,0.548858,0.840866,-0.007158,0.523543,0.85468,-0.00811,-0.031424,0,0.213177,0,0,0,0,1,0,0,0,0,0,0,0,0,0,0
662,'2025/06/30 16:18:43:806',33,0.33595,-0.018143,-0.051662,-0.053052,-0.219314,0.261427,0,-0.360841,0.570524,0.840307,-0.02141,0.548858,0.840866,-0.007158,0.523543,0.85468,-0.00811,-0.031424,0,0.213177,0,0,0,0,1,0,0,0,0,0,0,0,0,0,0
663,'2025/06/30 16:18:43:811',33,0.33595,-0.018143,-0.051662,-0.053052,-0.219314,0.261427,0,-0.360841,0.570524,0.840307,-0.02141,0.548858,0.840866,-0.007158,0.523543,0.85468,-0.00811,-0.031424,0,0.213177,0,0,0,0,1,0,0,0,0,0,0,0,0,0,0
664,'2025/06/30 16:18:48:005',34,0.306926,-0.018143,-0.051662,-0.053052,-0.206424,0.242591,0,-0.330679,0.570524,0.840307,-0.02141,0.548858,0.840866,-0.007158,0.523543,0.85468,-0.00811,-0.054949,0.047673,0.197482,0,0,0,0,1,0,0,0,0,0,0,0,0,0,0
665,'2025/06/30 16:18:48:011',34,0.306926,-0.018143,-0.051662,-0.053052,-0.206424,0.242591,0,-0.330679,0.570524,0.840307,-0.02141,0.548858,0.840866,-0.007158,0.523543,0.85468,-0.00811,-0.054949,0.047673,0.197482,0,0,0,0,1,0,0,0,0,0,0,0,0,0,0
666,'2025/06/30 16:18:48:017',34,0.306926,-0.018143,-0.051662,-0.053052,-0.206424,0.242591,0,-0.330679,0.570524,0.840307,-0.02141,0.548858,0.840866,-0.007158,0.523543,0.85468,-0.00811,-0.054949,0.047673,0.197482,0,0,0,0,1,0,0,0,0,0,0,0,0,0,0
667,'2025/06/30 16:18:48:022',34,0.306926,-0.018143,-0.051662,-0.053052,-0.206424,0.242591,0,-0.330679,0.570524,0.840307,-0.02141,0.548858,0.840866,-0.007158,0.523543,0.85468,-0.00811,-0.054949,0.047673,0.197482,0,0,0,0,1,0,0,0,0,0,0,0,0,0,0
668,'2025/06/30 16:18:48:027',34,0.306926,-0.018143,-0.051662,-0.053052,-0.206424,0.242591,0,-0.330679,0.570524,0.840307,-0.02141,0.548858,0.840866,-0.007158,0.523543,0.85468,-0.00811,-0.054949,0.047673,0.197482,0,0,0,0,1,0,0,0,0,0,0,0,0,0,0
669,'2025/06/30 16:18:48:032',34,0.306926,-0.018143,-0.051662,-0.053052,-0.206424,0.242591,0,-0.330679,0.570524,0.840307,-0.02141,0.548858,0.840866,-0.007158,0.523543,0.85468,-0.00811,-0.054949,0.047673,0.197482,0,0,0,0,1,0,0,0,0,0,0,0,0,0,0
670,'2025/06/30 16:18:48:038',34,0.306926,-0.018143,-0.051662,-0.053052,-0.206424,0.242591,0,-0.330679,0.570524,0.840307,-0.02141,0.548858,0.840866,-0.007158,0.523543,0.85468,-0.00811,-0.054949,0.047673,0.197482,0,0,0,0,1,0,0,0,0,0,0,0,0,0,0
671,'2025/06/30 16:18:48:043',34,0.306926,-0.018143,-0.051662,-0.053052,-0.206424,0.242591,0,-0.330679,0.570524,0.840307,-0.02141,0.548858,0.840866,-0.007158,0.523543,0.85468,-0.00811,-0.054949,0.047673,0.197482,0,0,0,0,1,0,0,0,0,0,0,0,0,0,0
672,'2025/06/30 16:18:48:048',34,0.306926,-0.018143,-0.051662,-0.053052,-0.206424,0.242591,0,-0.330679,0.570524,0.840307,-0.02141,0.548858,0.840866,-0.007158,0.523543,0.85468,-0.00811,-0.054949,0.047673,0.197482,0,0,0,0,1,0,0,0,0,0,0,0,0,0,0
673,'2025/06/30 16:18:48:053',34,0.306926,-0.018143,-0.051662,-0.053052,-0.206424,0.242591,0,-0.330679,0.570524,0.840307,-0.02141,0.548858,0.840866,-0.007158,0.523543,0.85468,-0.00811,-0.054949,0.047673,0.197482,0,0,0,0,1,0,0,0,0,0,0,0,0,0,0
674,'2025/06/30 16:18:48:059',34,0.306926,-0.018143,-0.051662,-0.053052,-0.206424,0.242591,0,-0.330679,0.570524,0.840307,-0.02141,0.548858,0.840866,-0.007158,0.523543,0.85468,-0.00811,-0.054949,0.047673,0.197482,0,0,0,0,1,0,0,0,0,0,0,0,0,0,0
675,'2025/06/30 16:18:48:063',34,0.306926,-0.018143,-0.051662,-0.053052,-0.206424,0.242591,0,-0.330679,0.570524,0.840307,-0.02141,0.548858,0.840866,-0.007158,0.523543,0.85468,-0.00811,-0.054949,0.047673,0.197482,0,0,0,0,1,0,0,0,0,0,0,0,0,0,0
676,'2025/06/30 16:18:48:067',34,0.306926,-0.018143,-0.051662,-0.053052,-0.206424,0.242591,0,-0.330679,0.570524,0.840307,-0.02141,0.548858,0.840866,-0.007158,0.523543,0.85468,-0.00811,-0.054949,0.047673,0.197482,0,0,0,0,1,0,0,0,0,0,0,0,0,0,0
677,'2025/06/30 16:18:48:072',34,0.306926,-0.018143,-0.051662,-0.053052,-0.206424,0.242591,0,-0.330679,0.570524,0.840307,-0.02141,0.548858,0.840866,-0.007158,0.523543,0.85468,-0.00811,-0.054949,0.047673,0.197482,0,0,0,0,1,0,0,0,0,0,0,0,0,0,0
678,'2025/06/30 16:18:48:078',34,0.306926,-0.018143,-0.051662,-0.053052,-0.206424,0.242591,0,-0.330679,0.570524,0.840307,-0.02141,0.548858,0.840866,-0.007158,0.523543,0.85468,-0.00811,-0.054949,0.047673,0.197482,0,0,0,0,1,0,0,0,0,0,0,0,0,0,0
679,'2025/06/30 16:18:48:081',34,0.306926,-0.018143,-0.051662,-0.053052,-0.206424,0.242591,0,-0.330679,0.570524,0.840307,-0.02141,0.548858,0.840866,-0.007158,0.523543,0.85468,-0.00811,-0.054949,0.047673,0.197482,0,0,0,0,1,0,0,0,0,0,0,0,0,0,0
680,'2025/06/30 16:18:48:086',34,0.306926,-0.018143,-0.051662,-0.053052,-0.206424,0.242591,0,-0.330679,0.570524,0.840307,-0.02141,0.548858,0.840866,-0.007158,0.523543,0.85468,-0.00811,-0.054949,0.047673,0.197482,0,0,0,0,1,0,0,0,0,0,0,0,0,0,0
681,'2025/06/30 16:18:48:091',34,0.306926,-0.018143,-0.051662,-0.053052,-0.206424,0.242591,0,-0.330679,0.570524,0.840307,-0.02141,0.548858,0.840866,-0.007158,0.523543,0.85468,-0.00811,-0.054949,0.047673,0.197482,0,0,0,0,1,0,0,0,0,0,0,0,0,0,0
682,'2025/06/30 16:18:48:095',34,0.306926,-0.018143,-0.051662,-0.053052,-0.206424,0.242591,0,-0.330679,0.570524,0.840307,-0.02141,0.548858,0.840866,-0.007158,0.523543,0.85468,-0.00811,-0.054949,0.047673,0.197482,0,0,0,0,1,0,0,0,0,0,0,0,0,0,0
683,'2025/06/30 16:18:48:100',34,0.306926,-0.018143,-0.051662,-0.053052,-0.206424,0.242591,0,-0.330679,0.570524,0.840307,-0.02141,0.548858,0.840866,-0.007158,0.523543,0.85468,-0.00811,-0.054949,0.047673,0.197482,0,0,0,0,1,0,0,0,0,0,0,0,0,0,0
684,'2025/06/30 16:18:48:106',34,0.306926,-0.018143,-0.051662,-0.053052,-0.206424,0.242591,0,-0.330679,0.570524,0.840307,-0.02141,0.548858,0.840866,-0.007158,0.523543,0.85468,-0.00811,-0.054949,0.047673,0.197482,0,0,0,0,1,0,0,0,0,0,0,0,0,0,0
685,'2025/06/30 16:18:51:828',35,0.379942,-0.018143,-0.051662,-0.053052,-0.400952,0.275015,0,-0.405502,0.570524,0.840307,-0.02141,0.548858,0.840866,-0.007158,0.523543,0.85468,-0.00811,-0.05745,0,0.396688,0,0,0,0,1,0,0,0,0,0,0,0,0,0,0
686,'2025/06/30 16:18:51:833',35,0.379942,-0.018143,-0.051662,-0.053052,-0.400952,0.275015,0,-0.405502,0.570524,0.840307,-0.02141,0.548858,0.840866,-0.007158,0.523543,0.85468,-0.00811,-0.05745,0,0.396688,0,0,0,0,1,0,0,0,0,0,0,0,0,0,0
687,'2025/06/30 16:18:51:839',35,0.379942,-0.018143,-0.051662,-0.053052,-0.400952,0.275015,0,-0.405502,0.570524,0.840307,-0.02141,0.548858,0.840866,-0.007158,0.523543,0.85468,-0.00811,-0.05745,0,0.396688,0,0,0,0,1,0,0,0,0,0,0,0,0,0,0
688,'2025/06/30 16:18:51:844',35,0.379942,-0.018143,-0.051662,-0.053052,-0.400952,0.275015,0,-0.405502,0.570524,0.840307,-0.02141,0.548858,0.840866,-0.007158,0.523543,0.85468,-0.00811,-0.05745,0,0.396688,0,0,0,0,1,0,0,0,0,0,0,0,0,0,0
689,'2025/06/30 16:18:51:849',35,0.379942,-0.018143,-0.051662,-0.053052,-0.400952,0.275015,0,-0.405502,0.570524,0.840307,-0.02141,0.548858,0.840866,-0.007158,0.523543,0.85468,-0.00811,-0.05745,0,0.396688,0,0,0,0,1,0,0,0,0,0,0,0,0,0,0
690,'2025/06/30 16:18:51:853',35,0.379942,-0.018143,-0.051662,-0.053052,-0.400952,0.275015,0,-0.405502,0.570524,0.840307,-0.02141,0.548858,0.840866,-0.007158,0.523543,0.85468,-0.00811,-0.05745,0,0.396688,0,0,0,0,1,0,0,0,0,0,0,0,0,0,0
691,'2025/06/30 16:18:51:860',35,0.379942,-0.018143,-0.051662,-0.053052,-0.400952,0.275015,0,-0.405502,0.570524,0.840307,-0.02141,0.548858,0.840866,-0.007158,0.523543,0.85468,-0.00811,-0.05745,0,0.396688,0,0,0,0,1,0,0,0,0,0,0,0,0,0,0
692,'2025/06/30 16:18:51:866',35,0.379942,-0.018143,-0.051662,-0.053052,-0.400952,0.275015,0,-0.405502,0.570524,0.840307,-0.02141,0.548858,0.840866,-0.007158,0.523543,0.85468,-0.00811,-0.05745,0,0.396688,0,0,0,0,1,0,0,0,0,0,0,0,0,0,0
693,'2025/06/30 16:18:51:872',35,0.379942,-0.018143,-0.051662,-0.053052,-0.400952,0.275015,0,-0.405502,0.570524,0.840307,-0.02141,0.548858,0.840866,-0.007158,0.523543,0.85468,-0.00811,-0.05745,0,0.396688,0,0,0,0,1,0,0,0,0,0,0,0,0,0,0
694,'2025/06/30 16:18:51:877',35,0.379942,-0.018143,-0.051662,-0.053052,-0.400952,0.275015,0,-0.405502,0.570524,0.840307,-0.02141,0.548858,0.840866,-0.007158,0.523543,0.85468,-0.00811,-0.05745,0,0.396688,0,0,0,0,1,0,0,0,0,0,0,0,0,0,0
695,'2025/06/30 16:18:51:883',35,0.379942,-0.018143,-0.051662,-0.053052,-0.400952,0.275015,0,-0.405502,0.570524,0.840307,-0.02141,0.548858,0.840866,-0.007158,0.523543,0.85468,-0.00811,-0.05745,0,0.396688,0,0,0,0,1,0,0,0,0,0,0,0,0,0,0
696,'2025/06/30 16:18:51:889',35,0.379942,-0.018143,-0.051662,-0.053052,-0.400952,0.275015,0,-0.405502,0.570524,0.840307,-0.02141,0.548858,0.840866,-0.007158,0.523543,0.85468,-0.00811,-0.05745,0,0.396688,0,0,0,0,1,0,0,0,0,0,0,0,0,0,0
697,'2025/06/30 16:18:51:893',35,0.379942,-0.018143,-0.051662,-0.053052,-0.400952,0.275015,0,-0.405502,0.570524,0.840307,-0.02141,0.548858,0.840866,-0.007158,0.523543,0.85468,-0.00811,-0.05745,0,0.396688,0,0,0,0,1,0,0,0,0,0,0,0,0,0,0
698,'2025/06/30 16:18:51:901',35,0.379942,-0.018143,-0.051662,-0.053052,-0.400952,0.275015,0,-0.405502,0.570524,0.840307,-0.02141,0.548858,0.840866,-0.007158,0.523543,0.85468,-0.00811,-0.05745,0,0.396688,0,0,0,0,1,0,0,0,0,0,0,0,0,0,0
699,'2025/06/30 16:18:51:907',35,0.379942,-0.018143,-0.051662,-0.053052,-0.400952,0.275015,0,-0.405502,0.570524,0.840307,-0.02141,0.548858,0.840866,-0.007158,0.523543,0.85468,-0.00811,-0.05745,0,0.396688,0,0,0,0,1,0,0,0,0,0,0,0,0,0,0
700,'2025/06/30 16:18:51:912',35,0.379942,-0.018143,-0.051662,-0.053052,-0.400952,0.275015,0,-0.405502,0.570524,0.840307,-0.02141,0.548858,0.840866,-0.007158,0.523543,0.85468,-0.00811,-0.05745,0,0.396688,0,0,0,0,1,0,0,0,0,0,0,0,0,0,0
701,'2025/06/30 16:18:51:918',35,0.379942,-0.018143,-0.051662,-0.053052,-0.400952,0.275015,0,-0.405502,0.570524,0.840307,-0.02141,0.548858,0.840866,-0.007158,0.523543,0.85468,-0.00811,-0.05745,0,0.396688,0,0,0,0,1,0,0,0,0,0,0,0,0,0,0
702,'2025/06/30 16:18:51:924',35,0.379942,-0.018143,-0.051662,-0.053052,-0.400952,0.275015,0,-0.405502,0.570524,0.840307,-0.02141,0.548858,0.840866,-0.007158,0.523543,0.85468,-0.00811,-0.05745,0,0.396688,0,0,0,0,1,0,0,0,0,0,0,0,0,0,0
703,'2025/06/30 16:18:51:930',35,0.379942,-0.018143,-0.051662,-0.053052,-0.400952,0.275015,0,-0.405502,0.570524,0.840307,-0.02141,0.548858,0.840866,-0.007158,0.523543,0.85468,-0.00811,-0.05745,0,0.396688,0,0,0,0,1,0,0,0,0,0,0,0,0,0,0
704,'2025/06/30 16:18:51:936',35,0.379942,-0.018143,-0.051662,-0.053052,-0.400952,0.275015,0,-0.405502,0.570524,0.840307,-0.02141,0.548858,0.840866,-0.007158,0.523543,0.85468,-0.00811,-0.05745,0,0.396688,0,0,0,0,1,0,0,0,0,0,0,0,0,0,0
705,'2025/06/30 16:18:51:941',35,0.379942,-0.018143,-0.051662,-0.053052,-0.400952,0.275015,0,-0.405502,0.570524,0.840307,-0.02141,0.548858,0.840866,-0.007158,0.523543,0.85468,-0.00811,-0.05745,0,0.396688,0,0,0,0,1,0,0,0,0,0,0,0,0,0,0
706,'2025/06/30 16:18:51:944',35,0.379942,-0.018143,-0.051662,-0.053052,-0.400952,0.275015,0,-0.405502,0.570524,0.840307,-0.02141,0.548858,0.840866,-0.007158,0.523543,0.85468,-0.00811,-0.05745,0,0.396688,0,0,0,0,1,0,0,0,0,0,0,0,0,0,0
707,'2025/06/30 16:18:51:950',35,0.379942,-0.018143,-0.051662,-0.053052,-0.400952,0.275015,0,-0.405502,0.570524,0.840307,-0.02141,0.548858,0.840866,-0.007158,0.523543,0.85468,-0.00811,-0.05745,0,0.396688,0,0,0,0,1,0,0,0,0,0,0,0,0,0,0
708,'2025/06/30 16:18:51:954',35,0.379942,-0.018143,-0.051662,-0.053052,-0.400952,0.275015,0,-0.405502,0.570524,0.840307,-0.02141,0.548858,0.840866,-0.007158,0.523543,0.85468,-0.00811,-0.05745,0,0.396688,0,0,0,0,1,0,0,0,0,0,0,0,0,0,0
709,'2025/06/30 16:18:51:961',35,0.379942,-0.018143,-0.051662,-0.053052,-0.400952,0.275015,0,-0.405502,0.570524,0.840307,-0.02141,0.548858,0.840866,-0.007158,0.523543,0.85468,-0.00811,-0.05745,0,0.396688,0,0,0,0,1,0,0,0,0,0,0,0,0,0,0
710,'2025/06/30 16:18:51:966',35,0.379942,-0.018143,-0.051662,-0.053052,-0.400952,0.275015,0,-0.405502,0.570524,0.840307,-0.02141,0.548858,0.840866,-0.007158,0.523543,0.85468,-0.00811,-0.05745,0,0.396688,0,0,0,0,1,0,0,0,0,0,0,0,0,0,0
711,'2025/06/30 16:18:51:971',35,0.379942,-0.018143,-0.051662,-0.053052,-0.400952,0.275015,0,-0.405502,0.570524,0.840307,-0.02141,0.548858,0.840866,-0.007158,0.523543,0.85468,-0.00811,-0.05745,0,0.396688,0,0,0,0,1,0,0,0,0,0,0,0,0,0,0
712,'2025/06/30 16:18:51:976',35,0.379942,-0.018143,-0.051662,-0.053052,-0.400952,0.275015,0,-0.405502,0.570524,0.840307,-0.02141,0.548858,0.840866,-0.007158,0.523543,0.85468,-0.00811,-0.05745,0,0.396688,0,0,0,0,1,0,0,0,0,0,0,0,0,0,0
713,'2025/06/30 16:18:51:981',35,0.379942,-0.018143,-0.051662,-0.053052,-0.400952,0.275015,0,-0.405502,0.570524,0.840307,-0.02141,0.548858,0.840866,-0.007158,0.523543,0.85468,-0.00811,-0.05745,0,0.396688,0,0,0,0,1,0,0,0,0,0,0,0,0,0,0
714,'2025/06/30 16:19:23:542',36,0.221924,0,-0.076428,-0.088944,0,0.251895,0,-0.246759,0,0.009815,-0.009363,0.713246,0.723785,0.010588,0.684908,0.768713,0.021868,0,0,-0.008008,0,0,0,0,0,1,0,0,0,0,0,0,0,0,0
715,'2025/06/30 16:19:23:549',36,0.221924,0,-0.076428,-0.088944,0,0.251895,0,-0.246759,0,0.009815,-0.009363,0.713246,0.723785,0.010588,0.684908,0.768713,0.021868,0,0,-0.008008,0,0,0,0,0,1,0,0,0,0,0,0,0,0,0
716,'2025/06/30 16:19:23:554',36,0.221924,0,-0.076428,-0.088944,0,0.251895,0,-0.246759,0,0.009815,-0.009363,0.713246,0.723785,0.010588,0.684908,0.768713,0.021868,0,0,-0.008008,0,0,0,0,0,1,0,0,0,0,0,0,0,0,0
717,'2025/06/30 16:19:23:558',36,0.221924,0,-0.076428,-0.088944,0,0.251895,0,-0.246759,0,0.009815,-0.009363,0.713246,0.723785,0.010588,0.684908,0.768713,0.021868,0,0,-0.008008,0,0,0,0,0,1,0,0,0,0,0,0,0,0,0
718,'2025/06/30 16:19:23:565',36,0.221924,0,-0.076428,-0.088944,0,0.251895,0,-0.246759,0,0.009815,-0.009363,0.713246,0.723785,0.010588,0.684908,0.768713,0.021868,0,0,-0.008008,0,0,0,0,0,1,0,0,0,0,0,0,0,0,0
719,'2025/06/30 16:19:23:570',36,0.221924,0,-0.076428,-0.088944,0,0.251895,0,-0.246759,0,0.009815,-0.009363,0.713246,0.723785,0.010588,0.684908,0.768713,0.021868,0,0,-0.008008,0,0,0,0,0,1,0,0,0,0,0,0,0,0,0
720,'2025/06/30 16:19:23:575',36,0.221924,0,-0.076428,-0.088944,0,0.251895,0,-0.246759,0,0.009815,-0.009363,0.713246,0.723785,0.010588,0.684908,0.768713,0.021868,0,0,-0.008008,0,0,0,0,0,1,0,0,0,0,0,0,0,0,0
721,'2025/06/30 16:19:23:580',36,0.221924,0,-0.076428,-0.088944,0,0.251895,0,-0.246759,0,0.009815,-0.009363,0.713246,0.723785,0.010588,0.684908,0.768713,0.021868,0,0,-0.008008,0,0,0,0,0,1,0,0,0,0,0,0,0,0,0
722,'2025/06/30 16:19:23:584',36,0.221924,0,-0.076428,-0.088944,0,0.251895,0,-0.246759,0,0.009815,-0.009363,0.713246,0.723785,0.010588,0.684908,0.768713,0.021868,0,0,-0.008008,0,0,0,0,0,1,0,0,0,0,0,0,0,0,0
723,'2025/06/30 16:19:23:590',36,0.221924,0,-0.076428,-0.088944,0,0.251895,0,-0.246759,0,0.009815,-0.009363,0.713246,0.723785,0.010588,0.684908,0.768713,0.021868,0,0,-0.008008,0,0,0,0,0,1,0,0,0,0,0,0,0,0,0
724,'2025/06/30 16:19:23:596',36,0.221924,0,-0.076428,-0.088944,0,0.251895,0,-0.246759,0,0.009815,-0.009363,0.713246,0.723785,0.010588,0.684908,0.768713,0.021868,0,0,-0.008008,0,0,0,0,0,1,0,0,0,0,0,0,0,0,0
725,'2025/06/30 16:19:23:601',36,0.221924,0,-0.076428,-0.088944,0,0.251895,0,-0.246759,0,0.009815,-0.009363,0.713246,0.723785,0.010588,0.684908,0.768713,0.021868,0,0,-0.008008,0,0,0,0,0,1,0,0,0,0,0,0,0,0,0
726,'2025/06/30 16:19:23:606',36,0.221924,0,-0.076428,-0.088944,0,0.251895,0,-0.246759,0,0.009815,-0.009363,0.713246,0.723785,0.010588,0.684908,0.768713,0.021868,0,0,-0.008008,0,0,0,0,0,1,0,0,0,0,0,0,0,0,0
727,'2025/06/30 16:19:23:612',36,0.221924,0,-0.076428,-0.088944,0,0.251895,0,-0.246759,0,0.009815,-0.009363,0.713246,0.723785,0.010588,0.684908,0.768713,0.021868,0,0,-0.008008,0,0,0,0,0,1,0,0,0,0,0,0,0,0,0
728,'2025/06/30 16:19:23:615',36,0.221924,0,-0.076428,-0.088944,0,0.251895,0,-0.246759,0,0.009815,-0.009363,0.713246,0.723785,0.010588,0.684908,0.768713,0.021868,0,0,-0.008008,0,0,0,0,0,1,0,0,0,0,0,0,0,0,0
729,'2025/06/30 16:19:23:621',36,0.221924,0,-0.076428,-0.088944,0,0.251895,0,-0.246759,0,0.009815,-0.009363,0.713246,0.723785,0.010588,0.684908,0.768713,0.021868,0,0,-0.008008,0,0,0,0,0,1,0,0,0,0,0,0,0,0,0
730,'2025/06/30 16:19:23:627',36,0.221924,0,-0.076428,-0.088944,0,0.251895,0,-0.246759,0,0.009815,-0.009363,0.713246,0.723785,0.010588,0.684908,0.768713,0.021868,0,0,-0.008008,0,0,0,0,0,1,0,0,0,0,0,0,0,0,0
731,'2025/06/30 16:19:23:632',36,0.221924,0,-0.076428,-0.088944,0,0.251895,0,-0.246759,0,0.009815,-0.009363,0.713246,0.723785,0.010588,0.684908,0.768713,0.021868,0,0,-0.008008,0,0,0,0,0,1,0,0,0,0,0,0,0,0,0
732,'2025/06/30 16:19:23:638',36,0.221924,0,-0.076428,-0.088944,0,0.251895,0,-0.246759,0,0.009815,-0.009363,0.713246,0.723785,0.010588,0.684908,0.768713,0.021868,0,0,-0.008008,0,0,0,0,0,1,0,0,0,0,0,0,0,0,0
733,'2025/06/30 16:19:23:643',36,0.221924,0,-0.076428,-0.088944,0,0.251895,0,-0.246759,0,0.009815,-0.009363,0.713246,0.723785,0.010588,0.684908,0.768713,0.021868,0,0,-0.008008,0,0,0,0,0,1,0,0,0,0,0,0,0,0,0
734,'2025/06/30 16:19:23:646',36,0.221924,0,-0.076428,-0.088944,0,0.251895,0,-0.246759,0,0.009815,-0.009363,0.713246,0.723785,0.010588,0.684908,0.768713,0.021868,0,0,-0.008008,0,0,0,0,0,1,0,0,0,0,0,0,0,0,0
735,'2025/06/30 16:19:23:651',36,0.221924,0,-0.076428,-0.088944,0,0.251895,0,-0.246759,0,0.009815,-0.009363,0.713246,0.723785,0.010588,0.684908,0.768713,0.021868,0,0,-0.008008,0,0,0,0,0,1,0,0,0,0,0,0,0,0,0
736,'2025/06/30 16:19:23:657',36,0.221924,0,-0.076428,-0.088944,0,0.251895,0,-0.246759,0,0.009815,-0.009363,0.713246,0.723785,0.010588,0.684908,0.768713,0.021868,0,0,-0.008008,0,0,0,0,0,1,0,0,0,0,0,0,0,0,0
737,'2025/06/30 16:19:23:663',36,0.221924,0,-0.076428,-0.088944,0,0.251895,0,-0.246759,0,0.009815,-0.009363,0.713246,0.723785,0.010588,0.684908,0.768713,0.021868,0,0,-0.008008,0,0,0,0,0,1,0,0,0,0,0,0,0,0,0
738,'2025/06/30 16:19:23:670',36,0.221924,0,-0.076428,-0.088944,0,0.251895,0,-0.246759,0,0.009815,-0.009363,0.713246,0.723785,0.010588,0.684908,0.768713,0.021868,0,0,-0.008008,0,0,0,0,0,1,0,0,0,0,0,0,0,0,0
739,'2025/06/30 16:19:23:674',36,0.221924,0,-0.076428,-0.088944,0,0.251895,0,-0.246759,0,0.009815,-0.009363,0.713246,0.723785,0.010588,0.684908,0.768713,0.021868,0,0,-0.008008,0,0,0,0,0,1,0,0,0,0,0,0,0,0,0
740,'2025/06/30 16:19:23:680',36,0.221924,0,-0.076428,-0.088944,0,0.251895,0,-0.246759,0,0.009815,-0.009363,0.713246,0.723785,0.010588,0.684908,0.768713,0.021868,0,0,-0.008008,0,0,0,0,0,1,0,0,0,0,0,0,0,0,0
741,'2025/06/30 16:19:23:685',36,0.221924,0,-0.076428,-0.088944,0,0.251895,0,-0.246759,0,0.009815,-0.009363,0.713246,0.723785,0.010588,0.684908,0.768713,0.021868,0,0,-0.008008,0,0,0,0,0,1,0,0,0,0,0,0,0,0,0
742,'2025/06/30 16:19:27:657',37,0.221924,0.062683,-0.076428,-0.088944,-0.056289,0.251895,0,-0.246759,0.017754,-0.004264,-0.073381,0.713246,0.723785,0.010588,0.684908,0.768713,0.021868,-0.008065,0,0.048723,0,0,0,0,0,1,0,0,0,0,0,0,0,0,0
743,'2025/06/30 16:19:27:663',37,0.221924,0.062683,-0.076428,-0.088944,-0.056289,0.251895,0,-0.246759,0.017754,-0.004264,-0.073381,0.713246,0.723785,0.010588,0.684908,0.768713,0.021868,-0.008065,0,0.048723,0,0,0,0,0,1,0,0,0,0,0,0,0,0,0
744,'2025/06/30 16:19:27:667',37,0.221924,0.062683,-0.076428,-0.088944,-0.056289,0.251895,0,-0.246759,0.017754,-0.004264,-0.073381,0.713246,0.723785,0.010588,0.684908,0.768713,0.021868,-0.008065,0,0.048723,0,0,0,0,0,1,0,0,0,0,0,0,0,0,0
745,'2025/06/30 16:19:27:673',37,0.221924,0.062683,-0.076428,-0.088944,-0.056289,0.251895,0,-0.246759,0.017754,-0.004264,-0.073381,0.713246,0.723785,0.010588,0.684908,0.768713,0.021868,-0.008065,0,0.048723,0,0,0,0,0,1,0,0,0,0,0,0,0,0,0
746,'2025/06/30 16:19:27:678',37,0.221924,0.062683,-0.076428,-0.088944,-0.056289,0.251895,0,-0.246759,0.017754,-0.004264,-0.073381,0.713246,0.723785,0.010588,0.684908,0.768713,0.021868,-0.008065,0,0.048723,0,0,0,0,0,1,0,0,0,0,0,0,0,0,0
747,'2025/06/30 16:19:27:683',37,0.221924,0.062683,-0.076428,-0.088944,-0.056289,0.251895,0,-0.246759,0.017754,-0.004264,-0.073381,0.713246,0.723785,0.010588,0.684908,0.768713,0.021868,-0.008065,0,0.048723,0,0,0,0,0,1,0,0,0,0,0,0,0,0,0
748,'2025/06/30 16:19:27:688',37,0.221924,0.062683,-0.076428,-0.088944,-0.056289,0.251895,0,-0.246759,0.017754,-0.004264,-0.073381,0.713246,0.723785,0.010588,0.684908,0.768713,0.021868,-0.008065,0,0.048723,0,0,0,0,0,1,0,0,0,0,0,0,0,0,0
749,'2025/06/30 16:19:27:693',37,0.221924,0.062683,-0.076428,-0.088944,-0.056289,0.251895,0,-0.246759,0.017754,-0.004264,-0.073381,0.713246,0.723785,0.010588,0.684908,0.768713,0.021868,-0.008065,0,0.048723,0,0,0,0,0,1,0,0,0,0,0,0,0,0,0
750,'2025/06/30 16:19:27:696',37,0.221924,0.062683,-0.076428,-0.088944,-0.056289,0.251895,0,-0.246759,0.017754,-0.004264,-0.073381,0.713246,0.723785,0.010588,0.684908,0.768713,0.021868,-0.008065,0,0.048723,0,0,0,0,0,1,0,0,0,0,0,0,0,0,0
751,'2025/06/30 16:19:27:702',37,0.221924,0.062683,-0.076428,-0.088944,-0.056289,0.251895,0,-0.246759,0.017754,-0.004264,-0.073381,0.713246,0.723785,0.010588,0.684908,0.768713,0.021868,-0.008065,0,0.048723,0,0,0,0,0,1,0,0,0,0,0,0,0,0,0
752,'2025/06/30 16:19:27:708',37,0.221924,0.062683,-0.076428,-0.088944,-0.056289,0.251895,0,-0.246759,0.017754,-0.004264,-0.073381,0.713246,0.723785,0.010588,0.684908,0.768713,0.021868,-0.008065,0,0.048723,0,0,0,0,0,1,0,0,0,0,0,0,0,0,0
753,'2025/06/30 16:19:27:714',37,0.221924,0.062683,-0.076428,-0.088944,-0.056289,0.251895,0,-0.246759,0.017754,-0.004264,-0.073381,0.713246,0.723785,0.010588,0.684908,0.768713,0.021868,-0.008065,0,0.048723,0,0,0,0,0,1,0,0,0,0,0,0,0,0,0
754,'2025/06/30 16:19:27:720',37,0.221924,0.062683,-0.076428,-0.088944,-0.056289,0.251895,0,-0.246759,0.017754,-0.004264,-0.073381,0.713246,0.723785,0.010588,0.684908,0.768713,0.021868,-0.008065,0,0.048723,0,0,0,0,0,1,0,0,0,0,0,0,0,0,0
755,'2025/06/30 16:19:27:725',37,0.221924,0.062683,-0.076428,-0.088944,-0.056289,0.251895,0,-0.246759,0.017754,-0.004264,-0.073381,0.713246,0.723785,0.010588,0.684908,0.768713,0.021868,-0.008065,0,0.048723,0,0,0,0,0,1,0,0,0,0,0,0,0,0,0
756,'2025/06/30 16:19:27:731',37,0.221924,0.062683,-0.076428,-0.088944,-0.056289,0.251895,0,-0.246759,0.017754,-0.004264,-0.073381,0.713246,0.723785,0.010588,0.684908,0.768713,0.021868,-0.008065,0,0.048723,0,0,0,0,0,1,0,0,0,0,0,0,0,0,0
757,'2025/06/30 16:19:27:736',37,0.221924,0.062683,-0.076428,-0.088944,-0.056289,0.251895,0,-0.246759,0.017754,-0.004264,-0.073381,0.713246,0.723785,0.010588,0.684908,0.768713,0.021868,-0.008065,0,0.048723,0,0,0,0,0,1,0,0,0,0,0,0,0,0,0
758,'2025/06/30 16:19:27:742',37,0.221924,0.062683,-0.076428,-0.088944,-0.056289,0.251895,0,-0.246759,0.017754,-0.004264,-0.073381,0.713246,0.723785,0.010588,0.684908,0.768713,0.021868,-0.008065,0,0.048723,0,0,0,0,0,1,0,0,0,0,0,0,0,0,0
759,'2025/06/30 16:19:27:747',37,0.221924,0.062683,-0.076428,-0.088944,-0.056289,0.251895,0,-0.246759,0.017754,-0.004264,-0.073381,0.713246,0.723785,0.010588,0.684908,0.768713,0.021868,-0.008065,0,0.048723,0,0,0,0,0,1,0,0,0,0,0,0,0,0,0
760,'2025/06/30 16:19:27:753',37,0.221924,0.062683,-0.076428,-0.088944,-0.056289,0.251895,0,-0.246759,0.017754,-0.004264,-0.073381,0.713246,0.723785,0.010588,0.684908,0.768713,0.021868,-0.008065,0,0.048723,0,0,0,0,0,1,0,0,0,0,0,0,0,0,0
761,'2025/06/30 16:19:27:760',37,0.221924,0.062683,-0.076428,-0.088944,-0.056289,0.251895,0,-0.246759,0.017754,-0.004264,-0.073381,0.713246,0.723785,0.010588,0.684908,0.768713,0.021868,-0.008065,0,0.048723,0,0,0,0,0,1,0,0,0,0,0,0,0,0,0
762,'2025/06/30 16:19:27:767',37,0.221924,0.062683,-0.076428,-0.088944,-0.056289,0.251895,0,-0.246759,0.017754,-0.004264,-0.073381,0.713246,0.723785,0.010588,0.684908,0.768713,0.021868,-0.008065,0,0.048723,0,0,0,0,0,1,0,0,0,0,0,0,0,0,0
763,'2025/06/30 16:19:27:771',37,0.221924,0.062683,-0.076428,-0.088944,-0.056289,0.251895,0,-0.246759,0.017754,-0.004264,-0.073381,0.713246,0.723785,0.010588,0.684908,0.768713,0.021868,-0.008065,0,0.048723,0,0,0,0,0,1,0,0,0,0,0,0,0,0,0
764,'2025/06/30 16:19:27:776',37,0.221924,0.062683,-0.076428,-0.088944,-0.056289,0.251895,0,-0.246759,0.017754,-0.004264,-0.073381,0.713246,0.723785,0.010588,0.684908,0.768713,0.021868,-0.008065,0,0.048723,0,0,0,0,0,1,0,0,0,0,0,0,0,0,0
765,'2025/06/30 16:19:30:080',38,0.277493,0.062683,-0.076428,-0.088944,-0.056289,0.260588,0,-0.302651,0.017754,-0.004264,-0.073381,0.713246,0.723785,0.010588,0.684908,0.768713,0.021868,-0.008065,0,0.048723,0,0,0,0,0,1,0,0,0,0,0,0,0,0,0
766,'2025/06/30 16:19:30:084',38,0.277493,0.062683,-0.076428,-0.088944,-0.056289,0.260588,0,-0.302651,0.017754,-0.004264,-0.073381,0.713246,0.723785,0.010588,0.684908,0.768713,0.021868,-0.008065,0,0.048723,0,0,0,0,0,1,0,0,0,0,0,0,0,0,0
767,'2025/06/30 16:19:30:091',38,0.277493,0.062683,-0.076428,-0.088944,-0.056289,0.260588,0,-0.302651,0.017754,-0.004264,-0.073381,0.713246,0.723785,0.010588,0.684908,0.768713,0.021868,-0.008065,0,0.048723,0,0,0,0,0,1,0,0,0,0,0,0,0,0,0
768,'2025/06/30 16:19:30:097',38,0.277493,0.062683,-0.076428,-0.088944,-0.056289,0.260588,0,-0.302651,0.017754,-0.004264,-0.073381,0.713246,0.723785,0.010588,0.684908,0.768713,0.021868,-0.008065,0,0.048723,0,0,0,0,0,1,0,0,0,0,0,0,0,0,0
769,'2025/06/30 16:19:30:104',38,0.277493,0.062683,-0.076428,-0.088944,-0.056289,0.260588,0,-0.302651,0.017754,-0.004264,-0.073381,0.713246,0.723785,0.010588,0.684908,0.768713,0.021868,-0.008065,0,0.048723,0,0,0,0,0,1,0,0,0,0,0,0,0,0,0
770,'2025/06/30 16:19:30:111',38,0.277493,0.062683,-0.076428,-0.088944,-0.056289,0.260588,0,-0.302651,0.017754,-0.004264,-0.073381,0.713246,0.723785,0.010588,0.684908,0.768713,0.021868,-0.008065,0,0.048723,0,0,0,0,0,1,0,0,0,0,0,0,0,0,0
771,'2025/06/30 16:19:30:118',38,0.277493,0.062683,-0.076428,-0.088944,-0.056289,0.260588,0,-0.302651,0.017754,-0.004264,-0.073381,0.713246,0.723785,0.010588,0.684908,0.768713,0.021868,-0.008065,0,0.048723,0,0,0,0,0,1,0,0,0,0,0,0,0,0,0
772,'2025/06/30 16:19:30:124',38,0.277493,0.062683,-0.076428,-0.088944,-0.056289,0.260588,0,-0.302651,0.017754,-0.004264,-0.073381,0.713246,0.723785,0.010588,0.684908,0.768713,0.021868,-0.008065,0,0.048723,0,0,0,0,0,1,0,0,0,0,0,0,0,0,0
773,'2025/06/30 16:19:30:129',38,0.277493,0.062683,-0.076428,-0.088944,-0.056289,0.260588,0,-0.302651,0.017754,-0.004264,-0.073381,0.713246,0.723785,0.010588,0.684908,0.768713,0.021868,-0.008065,0,0.048723,0,0,0,0,0,1,0,0,0,0,0,0,0,0,0
774,'2025/06/30 16:19:30:135',38,0.277493,0.062683,-0.076428,-0.088944,-0.056289,0.260588,0,-0.302651,0.017754,-0.004264,-0.073381,0.713246,0.723785,0.010588,0.684908,0.768713,0.021868,-0.008065,0,0.048723,0,0,0,0,0,1,0,0,0,0,0,0,0,0,0
775,'2025/06/30 16:19:30:141',38,0.277493,0.062683,-0.076428,-0.088944,-0.056289,0.260588,0,-0.302651,0.017754,-0.004264,-0.073381,0.713246,0.723785,0.010588,0.684908,0.768713,0.021868,-0.008065,0,0.048723,0,0,0,0,0,1,0,0,0,0,0,0,0,0,0
776,'2025/06/30 16:19:30:147',38,0.277493,0.062683,-0.076428,-0.088944,-0.056289,0.260588,0,-0.302651,0.017754,-0.004264,-0.073381,0.713246,0.723785,0.010588,0.684908,0.768713,0.021868,-0.008065,0,0.048723,0,0,0,0,0,1,0,0,0,0,0,0,0,0,0
777,'2025/06/30 16:19:30:152',38,0.277493,0.062683,-0.076428,-0.088944,-0.056289,0.260588,0,-0.302651,0.017754,-0.004264,-0.073381,0.713246,0.723785,0.010588,0.684908,0.768713,0.021868,-0.008065,0,0.048723,0,0,0,0,0,1,0,0,0,0,0,0,0,0,0
778,'2025/06/30 16:19:30:157',38,0.277493,0.062683,-0.076428,-0.088944,-0.056289,0.260588,0,-0.302651,0.017754,-0.004264,-0.073381,0.713246,0.723785,0.010588,0.684908,0.768713,0.021868,-0.008065,0,0.048723,0,0,0,0,0,1,0,0,0,0,0,0,0,0,0
779,'2025/06/30 16:19:30:164',38,0.277493,0.062683,-0.076428,-0.088944,-0.056289,0.260588,0,-0.302651,0.017754,-0.004264,-0.073381,0.713246,0.723785,0.010588,0.684908,0.768713,0.021868,-0.008065,0,0.048723,0,0,0,0,0,1,0,0,0,0,0,0,0,0,0
780,'2025/06/30 16:19:30:169',38,0.277493,0.062683,-0.076428,-0.088944,-0.056289,0.260588,0,-0.302651,0.017754,-0.004264,-0.073381,0.713246,0.723785,0.010588,0.684908,0.768713,0.021868,-0.008065,0,0.048723,0,0,0,0,0,1,0,0,0,0,0,0,0,0,0
781,'2025/06/30 16:19:30:173',38,0.277493,0.062683,-0.076428,-0.088944,-0.056289,0.260588,0,-0.302651,0.017754,-0.004264,-0.073381,0.713246,0.723785,0.010588,0.684908,0.768713,0.021868,-0.008065,0,0.048723,0,0,0,0,0,1,0,0,0,0,0,0,0,0,0
782,'2025/06/30 16:19:30:177',38,0.277493,0.062683,-0.076428,-0.088944,-0.056289,0.260588,0,-0.302651,0.017754,-0.004264,-0.073381,0.713246,0.723785,0.010588,0.684908,0.768713,0.021868,-0.008065,0,0.048723,0,0,0,0,0,1,0,0,0,0,0,0,0,0,0
783,'2025/06/30 16:19:30:182',38,0.277493,0.062683,-0.076428,-0.088944,-0.056289,0.260588,0,-0.302651,0.017754,-0.004264,-0.073381,0.713246,0.723785,0.010588,0.684908,0.768713,0.021868,-0.008065,0,0.048723,0,0,0,0,0,1,0,0,0,0,0,0,0,0,0
784,'2025/06/30 16:19:30:188',38,0.277493,0.062683,-0.076428,-0.088944,-0.056289,0.260588,0,-0.302651,0.017754,-0.004264,-0.073381,0.713246,0.723785,0.010588,0.684908,0.768713,0.021868,-0.008065,0,0.048723,0,0,0,0,0,1,0,0,0,0,0,0,0,0,0
785,'2025/06/30 16:19:35:328',39,0.277493,0.119899,-0.076428,-0.088944,-0.056289,0.260588,0,-0.302651,0.025958,-0.004264,-0.130981,0.713246,0.723785,0.010588,0.684908,0.768713,0.021868,-0.008065,0,0.048723,0,0,0,0,0,1,0,0,0,0,0,0,0,0,0
786,'2025/06/30 16:19:35:333',39,0.277493,0.119899,-0.076428,-0.088944,-0.056289,0.260588,0,-0.302651,0.025958,-0.004264,-0.130981,0.713246,0.723785,0.010588,0.684908,0.768713,0.021868,-0.008065,0,0.048723,0,0,0,0,0,1,0,0,0,0,0,0,0,0,0
787,'2025/06/30 16:19:35:339',39,0.277493,0.119899,-0.076428,-0.088944,-0.056289,0.260588,0,-0.302651,0.025958,-0.004264,-0.130981,0.713246,0.723785,0.010588,0.684908,0.768713,0.021868,-0.008065,0,0.048723,0,0,0,0,0,1,0,0,0,0,0,0,0,0,0
788,'2025/06/30 16:19:35:344',39,0.277493,0.119899,-0.076428,-0.088944,-0.056289,0.260588,0,-0.302651,0.025958,-0.004264,-0.130981,0.713246,0.723785,0.010588,0.684908,0.768713,0.021868,-0.008065,0,0.048723,0,0,0,0,0,1,0,0,0,0,0,0,0,0,0
789,'2025/06/30 16:19:35:348',39,0.277493,0.119899,-0.076428,-0.088944,-0.056289,0.260588,0,-0.302651,0.025958,-0.004264,-0.130981,0.713246,0.723785,0.010588,0.684908,0.768713,0.021868,-0.008065,0,0.048723,0,0,0,0,0,1,0,0,0,0,0,0,0,0,0
790,'2025/06/30 16:19:35:354',39,0.277493,0.119899,-0.076428,-0.088944,-0.056289,0.260588,0,-0.302651,0.025958,-0.004264,-0.130981,0.713246,0.723785,0.010588,0.684908,0.768713,0.021868,-0.008065,0,0.048723,0,0,0,0,0,1,0,0,0,0,0,0,0,0,0
791,'2025/06/30 16:19:35:360',39,0.277493,0.119899,-0.076428,-0.088944,-0.056289,0.260588,0,-0.302651,0.025958,-0.004264,-0.130981,0.713246,0.723785,0.010588,0.684908,0.768713,0.021868,-0.008065,0,0.048723,0,0,0,0,0,1,0,0,0,0,0,0,0,0,0
792,'2025/06/30 16:19:35:365',39,0.277493,0.119899,-0.076428,-0.088944,-0.056289,0.260588,0,-0.302651,0.025958,-0.004264,-0.130981,0.713246,0.723785,0.010588,0.684908,0.768713,0.021868,-0.008065,0,0.048723,0,0,0,0,0,1,0,0,0,0,0,0,0,0,0
793,'2025/06/30 16:19:35:371',39,0.277493,0.119899,-0.076428,-0.088944,-0.056289,0.260588,0,-0.302651,0.025958,-0.004264,-0.130981,0.713246,0.723785,0.010588,0.684908,0.768713,0.021868,-0.008065,0,0.048723,0,0,0,0,0,1,0,0,0,0,0,0,0,0,0
794,'2025/06/30 16:19:35:376',39,0.277493,0.119899,-0.076428,-0.088944,-0.056289,0.260588,0,-0.302651,0.025958,-0.004264,-0.130981,0.713246,0.723785,0.010588,0.684908,0.768713,0.021868,-0.008065,0,0.048723,0,0,0,0,0,1,0,0,0,0,0,0,0,0,0
795,'2025/06/30 16:19:35:381',39,0.277493,0.119899,-0.076428,-0.088944,-0.056289,0.260588,0,-0.302651,0.025958,-0.004264,-0.130981,0.713246,0.723785,0.010588,0.684908,0.768713,0.021868,-0.008065,0,0.048723,0,0,0,0,0,1,0,0,0,0,0,0,0,0,0
796,'2025/06/30 16:19:35:385',39,0.277493,0.119899,-0.076428,-0.088944,-0.056289,0.260588,0,-0.302651,0.025958,-0.004264,-0.130981,0.713246,0.723785,0.010588,0.684908,0.768713,0.021868,-0.008065,0,0.048723,0,0,0,0,0,1,0,0,0,0,0,0,0,0,0
797,'2025/06/30 16:19:35:391',39,0.277493,0.119899,-0.076428,-0.088944,-0.056289,0.260588,0,-0.302651,0.025958,-0.004264,-0.130981,0.713246,0.723785,0.010588,0.684908,0.768713,0.021868,-0.008065,0,0.048723,0,0,0,0,0,1,0,0,0,0,0,0,0,0,0
798,'2025/06/30 16:19:35:396',39,0.277493,0.119899,-0.076428,-0.088944,-0.056289,0.260588,0,-0.302651,0.025958,-0.004264,-0.130981,0.713246,0.723785,0.010588,0.684908,0.768713,0.021868,-0.008065,0,0.048723,0,0,0,0,0,1,0,0,0,0,0,0,0,0,0
799,'2025/06/30 16:19:35:401',39,0.277493,0.119899,-0.076428,-0.088944,-0.056289,0.260588,0,-0.302651,0.025958,-0.004264,-0.130981,0.713246,0.723785,0.010588,0.684908,0.768713,0.021868,-0.008065,0,0.048723,0,0,0,0,0,1,0,0,0,0,0,0,0,0,0
800,'2025/06/30 16:19:35:407',39,0.277493,0.119899,-0.076428,-0.088944,-0.056289,0.260588,0,-0.302651,0.025958,-0.004264,-0.130981,0.713246,0.723785,0.010588,0.684908,0.768713,0.021868,-0.008065,0,0.048723,0,0,0,0,0,1,0,0,0,0,0,0,0,0,0
801,'2025/06/30 16:19:35:412',39,0.277493,0.119899,-0.076428,-0.088944,-0.056289,0.260588,0,-0.302651,0.025958,-0.004264,-0.130981,0.713246,0.723785,0.010588,0.684908,0.768713,0.021868,-0.008065,0,0.048723,0,0,0,0,0,1,0,0,0,0,0,0,0,0,0
802,'2025/06/30 16:19:35:417',39,0.277493,0.119899,-0.076428,-0.088944,-0.056289,0.260588,0,-0.302651,0.025958,-0.004264,-0.130981,0.713246,0.723785,0.010588,0.684908,0.768713,0.021868,-0.008065,0,0.048723,0,0,0,0,0,1,0,0,0,0,0,0,0,0,0
803,'2025/06/30 16:19:35:425',39,0.277493,0.119899,-0.076428,-0.088944,-0.056289,0.260588,0,-0.302651,0.025958,-0.004264,-0.130981,0.713246,0.723785,0.010588,0.684908,0.768713,0.021868,-0.008065,0,0.048723,0,0,0,0,0,1,0,0,0,0,0,0,0,0,0
804,'2025/06/30 16:19:35:431',39,0.277493,0.119899,-0.076428,-0.088944,-0.056289,0.260588,0,-0.302651,0.025958,-0.004264,-0.130981,0.713246,0.723785,0.010588,0.684908,0.768713,0.021868,-0.008065,0,0.048723,0,0,0,0,0,1,0,0,0,0,0,0,0,0,0
805,'2025/06/30 16:19:35:436',39,0.277493,0.119899,-0.076428,-0.088944,-0.056289,0.260588,0,-0.302651,0.025958,-0.004264,-0.130981,0.713246,0.723785,0.010588,0.684908,0.768713,0.021868,-0.008065,0,0.048723,0,0,0,0,0,1,0,0,0,0,0,0,0,0,0
806,'2025/06/30 16:19:35:442',39,0.277493,0.119899,-0.076428,-0.088944,-0.056289,0.260588,0,-0.302651,0.025958,-0.004264,-0.130981,0.713246,0.723785,0.010588,0.684908,0.768713,0.021868,-0.008065,0,0.048723,0,0,0,0,0,1,0,0,0,0,0,0,0,0,0
807,'2025/06/30 16:19:35:448',39,0.277493,0.119899,-0.076428,-0.088944,-0.056289,0.260588,0,-0.302651,0.025958,-0.004264,-0.130981,0.713246,0.723785,0.010588,0.684908,0.768713,0.021868,-0.008065,0,0.048723,0,0,0,0,0,1,0,0,0,0,0,0,0,0,0
808,'2025/06/30 16:19:35:452',39,0.277493,0.119899,-0.076428,-0.088944,-0.056289,0.260588,0,-0.302651,0.025958,-0.004264,-0.130981,0.713246,0.723785,0.010588,0.684908,0.768713,0.021868,-0.008065,0,0.048723,0,0,0,0,0,1,0,0,0,0,0,0,0,0,0
809,'2025/06/30 16:19:35:459',39,0.277493,0.119899,-0.076428,-0.088944,-0.056289,0.260588,0,-0.302651,0.025958,-0.004264,-0.130981,0.713246,0.723785,0.010588,0.684908,0.768713,0.021868,-0.008065,0,0.048723,0,0,0,0,0,1,0,0,0,0,0,0,0,0,0
810,'2025/06/30 16:19:39:830',40,0.277493,0.145147,-0.076428,-0.088944,-0.123863,0.260588,0,-0.302651,0.029389,-0.004264,-0.156374,0.713246,0.723785,0.010588,0.684908,0.768713,0.021868,-0.017747,0,0.116862,0,0,0,0,0,1,0,0,0,0,0,0,0,0,0
811,'2025/06/30 16:19:39:835',40,0.277493,0.145147,-0.076428,-0.088944,-0.123863,0.260588,0,-0.302651,0.029389,-0.004264,-0.156374,0.713246,0.723785,0.010588,0.684908,0.768713,0.021868,-0.017747,0,0.116862,0,0,0,0,0,1,0,0,0,0,0,0,0,0,0
812,'2025/06/30 16:19:39:841',40,0.277493,0.145147,-0.076428,-0.088944,-0.123863,0.260588,0,-0.302651,0.029389,-0.004264,-0.156374,0.713246,0.723785,0.010588,0.684908,0.768713,0.021868,-0.017747,0,0.116862,0,0,0,0,0,1,0,0,0,0,0,0,0,0,0
813,'2025/06/30 16:19:39:846',40,0.277493,0.145147,-0.076428,-0.088944,-0.123863,0.260588,0,-0.302651,0.029389,-0.004264,-0.156374,0.713246,0.723785,0.010588,0.684908,0.768713,0.021868,-0.017747,0,0.116862,0,0,0,0,0,1,0,0,0,0,0,0,0,0,0
814,'2025/06/30 16:19:39:850',40,0.277493,0.145147,-0.076428,-0.088944,-0.123863,0.260588,0,-0.302651,0.029389,-0.004264,-0.156374,0.713246,0.723785,0.010588,0.684908,0.768713,0.021868,-0.017747,0,0.116862,0,0,0,0,0,1,0,0,0,0,0,0,0,0,0
815,'2025/06/30 16:19:39:856',40,0.277493,0.145147,-0.076428,-0.088944,-0.123863,0.260588,0,-0.302651,0.029389,-0.004264,-0.156374,0.713246,0.723785,0.010588,0.684908,0.768713,0.021868,-0.017747,0,0.116862,0,0,0,0,0,1,0,0,0,0,0,0,0,0,0
816,'2025/06/30 16:19:39:861',40,0.277493,0.145147,-0.076428,-0.088944,-0.123863,0.260588,0,-0.302651,0.029389,-0.004264,-0.156374,0.713246,0.723785,0.010588,0.684908,0.768713,0.021868,-0.017747,0,0.116862,0,0,0,0,0,1,0,0,0,0,0,0,0,0,0
817,'2025/06/30 16:19:39:866',40,0.277493,0.145147,-0.076428,-0.088944,-0.123863,0.260588,0,-0.302651,0.029389,-0.004264,-0.156374,0.713246,0.723785,0.010588,0.684908,0.768713,0.021868,-0.017747,0,0.116862,0,0,0,0,0,1,0,0,0,0,0,0,0,0,0
818,'2025/06/30 16:19:39:871',40,0.277493,0.145147,-0.076428,-0.088944,-0.123863,0.260588,0,-0.302651,0.029389,-0.004264,-0.156374,0.713246,0.723785,0.010588,0.684908,0.768713,0.021868,-0.017747,0,0.116862,0,0,0,0,0,1,0,0,0,0,0,0,0,0,0
819,'2025/06/30 16:19:39:878',40,0.277493,0.145147,-0.076428,-0.088944,-0.123863,0.260588,0,-0.302651,0.029389,-0.004264,-0.156374,0.713246,0.723785,0.010588,0.684908,0.768713,0.021868,-0.017747,0,0.116862,0,0,0,0,0,1,0,0,0,0,0,0,0,0,0
820,'2025/06/30 16:19:39:883',40,0.277493,0.145147,-0.076428,-0.088944,-0.123863,0.260588,0,-0.302651,0.029389,-0.004264,-0.156374,0.713246,0.723785,0.010588,0.684908,0.768713,0.021868,-0.017747,0,0.116862,0,0,0,0,0,1,0,0,0,0,0,0,0,0,0
821,'2025/06/30 16:19:39:888',40,0.277493,0.145147,-0.076428,-0.088944,-0.123863,0.260588,0,-0.302651,0.029389,-0.004264,-0.156374,0.713246,0.723785,0.010588,0.684908,0.768713,0.021868,-0.017747,0,0.116862,0,0,0,0,0,1,0,0,0,0,0,0,0,0,0
822,'2025/06/30 16:19:39:895',40,0.277493,0.145147,-0.076428,-0.088944,-0.123863,0.260588,0,-0.302651,0.029389,-0.004264,-0.156374,0.713246,0.723785,0.010588,0.684908,0.768713,0.021868,-0.017747,0,0.116862,0,0,0,0,0,1,0,0,0,0,0,0,0,0,0
823,'2025/06/30 16:19:39:900',40,0.277493,0.145147,-0.076428,-0.088944,-0.123863,0.260588,0,-0.302651,0.029389,-0.004264,-0.156374,0.713246,0.723785,0.010588,0.684908,0.768713,0.021868,-0.017747,0,0.116862,0,0,0,0,0,1,0,0,0,0,0,0,0,0,0
824,'2025/06/30 16:19:39:905',40,0.277493,0.145147,-0.076428,-0.088944,-0.123863,0.260588,0,-0.302651,0.029389,-0.004264,-0.156374,0.713246,0.723785,0.010588,0.684908,0.768713,0.021868,-0.017747,0,0.116862,0,0,0,0,0,1,0,0,0,0,0,0,0,0,0
825,'2025/06/30 16:19:39:910',40,0.277493,0.145147,-0.076428,-0.088944,-0.123863,0.260588,0,-0.302651,0.029389,-0.004264,-0.156374,0.713246,0.723785,0.010588,0.684908,0.768713,0.021868,-0.017747,0,0.116862,0,0,0,0,0,1,0,0,0,0,0,0,0,0,0
826,'2025/06/30 16:19:39:916',40,0.277493,0.145147,-0.076428,-0.088944,-0.123863,0.260588,0,-0.302651,0.029389,-0.004264,-0.156374,0.713246,0.723785,0.010588,0.684908,0.768713,0.021868,-0.017747,0,0.116862,0,0,0,0,0,1,0,0,0,0,0,0,0,0,0
827,'2025/06/30 16:19:39:922',40,0.277493,0.145147,-0.076428,-0.088944,-0.123863,0.260588,0,-0.302651,0.029389,-0.004264,-0.156374,0.713246,0.723785,0.010588,0.684908,0.768713,0.021868,-0.017747,0,0.116862,0,0,0,0,0,1,0,0,0,0,0,0,0,0,0
828,'2025/06/30 16:19:39:927',40,0.277493,0.145147,-0.076428,-0.088944,-0.123863,0.260588,0,-0.302651,0.029389,-0.004264,-0.156374,0.713246,0.723785,0.010588,0.684908,0.768713,0.021868,-0.017747,0,0.116862,0,0,0,0,0,1,0,0,0,0,0,0,0,0,0
829,'2025/06/30 16:19:39:931',40,0.277493,0.145147,-0.076428,-0.088944,-0.123863,0.260588,0,-0.302651,0.029389,-0.004264,-0.156374,0.713246,0.723785,0.010588,0.684908,0.768713,0.021868,-0.017747,0,0.116862,0,0,0,0,0,1,0,0,0,0,0,0,0,0,0
830,'2025/06/30 16:19:39:938',40,0.277493,0.145147,-0.076428,-0.088944,-0.123863,0.260588,0,-0.302651,0.029389,-0.004264,-0.156374,0.713246,0.723785,0.010588,0.684908,0.768713,0.021868,-0.017747,0,0.116862,0,0,0,0,0,1,0,0,0,0,0,0,0,0,0
831,'2025/06/30 16:19:39:943',40,0.277493,0.145147,-0.076428,-0.088944,-0.123863,0.260588,0,-0.302651,0.029389,-0.004264,-0.156374,0.713246,0.723785,0.010588,0.684908,0.768713,0.021868,-0.017747,0,0.116862,0,0,0,0,0,1,0,0,0,0,0,0,0,0,0
832,'2025/06/30 16:19:39:950',40,0.277493,0.145147,-0.076428,-0.088944,-0.123863,0.260588,0,-0.302651,0.029389,-0.004264,-0.156374,0.713246,0.723785,0.010588,0.684908,0.768713,0.021868,-0.017747,0,0.116862,0,0,0,0,0,1,0,0,0,0,0,0,0,0,0
833,'2025/06/30 16:19:39:955',40,0.277493,0.145147,-0.076428,-0.088944,-0.123863,0.260588,0,-0.302651,0.029389,-0.004264,-0.156374,0.713246,0.723785,0.010588,0.684908,0.768713,0.021868,-0.017747,0,0.116862,0,0,0,0,0,1,0,0,0,0,0,0,0,0,0
834,'2025/06/30 16:19:39:961',40,0.277493,0.145147,-0.076428,-0.088944,-0.123863,0.260588,0,-0.302651,0.029389,-0.004264,-0.156374,0.713246,0.723785,0.010588,0.684908,0.768713,0.021868,-0.017747,0,0.116862,0,0,0,0,0,1,0,0,0,0,0,0,0,0,0
835,'2025/06/30 16:19:39:966',40,0.277493,0.145147,-0.076428,-0.088944,-0.123863,0.260588,0,-0.302651,0.029389,-0.004264,-0.156374,0.713246,0.723785,0.010588,0.684908,0.768713,0.021868,-0.017747,0,0.116862,0,0,0,0,0,1,0,0,0,0,0,0,0,0,0
836,'2025/06/30 16:19:39:971',40,0.277493,0.145147,-0.076428,-0.088944,-0.123863,0.260588,0,-0.302651,0.029389,-0.004264,-0.156374,0.713246,0.723785,0.010588,0.684908,0.768713,0.021868,-0.017747,0,0.116862,0,0,0,0,0,1,0,0,0,0,0,0,0,0,0
837,'2025/06/30 16:19:39:977',40,0.277493,0.145147,-0.076428,-0.088944,-0.123863,0.260588,0,-0.302651,0.029389,-0.004264,-0.156374,0.713246,0.723785,0.010588,0.684908,0.768713,0.021868,-0.017747,0,0.116862,0,0,0,0,0,1,0,0,0,0,0,0,0,0,0
838,'2025/06/30 16:19:49:933',41,0.277493,0.145147,-0.049516,-0.055307,-0.123863,0.260588,0,-0.302651,0.029389,-0.004264,-0.156374,0.575517,0.85419,-0.011963,0.543799,0.861251,-0.007097,-0.017747,0,0.116862,0,0,0,0,0,1,0,0,0,0,0,0,0,0,0
839,'2025/06/30 16:19:49:938',41,0.277493,0.145147,-0.049516,-0.055307,-0.123863,0.260588,0,-0.302651,0.029389,-0.004264,-0.156374,0.575517,0.85419,-0.011963,0.543799,0.861251,-0.007097,-0.017747,0,0.116862,0,0,0,0,0,1,0,0,0,0,0,0,0,0,0
840,'2025/06/30 16:19:49:945',41,0.277493,0.145147,-0.049516,-0.055307,-0.123863,0.260588,0,-0.302651,0.029389,-0.004264,-0.156374,0.575517,0.85419,-0.011963,0.543799,0.861251,-0.007097,-0.017747,0,0.116862,0,0,0,0,0,1,0,0,0,0,0,0,0,0,0
841,'2025/06/30 16:19:49:950',41,0.277493,0.145147,-0.049516,-0.055307,-0.123863,0.260588,0,-0.302651,0.029389,-0.004264,-0.156374,0.575517,0.85419,-0.011963,0.543799,0.861251,-0.007097,-0.017747,0,0.116862,0,0,0,0,0,1,0,0,0,0,0,0,0,0,0
842,'2025/06/30 16:19:49:955',41,0.277493,0.145147,-0.049516,-0.055307,-0.123863,0.260588,0,-0.302651,0.029389,-0.004264,-0.156374,0.575517,0.85419,-0.011963,0.543799,0.861251,-0.007097,-0.017747,0,0.116862,0,0,0,0,0,1,0,0,0,0,0,0,0,0,0
843,'2025/06/30 16:19:49:960',41,0.277493,0.145147,-0.049516,-0.055307,-0.123863,0.260588,0,-0.302651,0.029389,-0.004264,-0.156374,0.575517,0.85419,-0.011963,0.543799,0.861251,-0.007097,-0.017747,0,0.116862,0,0,0,0,0,1,0,0,0,0,0,0,0,0,0
844,'2025/06/30 16:19:49:964',41,0.277493,0.145147,-0.049516,-0.055307,-0.123863,0.260588,0,-0.302651,0.029389,-0.004264,-0.156374,0.575517,0.85419,-0.011963,0.543799,0.861251,-0.007097,-0.017747,0,0.116862,0,0,0,0,0,1,0,0,0,0,0,0,0,0,0
845,'2025/06/30 16:19:49:970',41,0.277493,0.145147,-0.049516,-0.055307,-0.123863,0.260588,0,-0.302651,0.029389,-0.004264,-0.156374,0.575517,0.85419,-0.011963,0.543799,0.861251,-0.007097,-0.017747,0,0.116862,0,0,0,0,0,1,0,0,0,0,0,0,0,0,0
846,'2025/06/30 16:19:49:976',41,0.277493,0.145147,-0.049516,-0.055307,-0.123863,0.260588,0,-0.302651,0.029389,-0.004264,-0.156374,0.575517,0.85419,-0.011963,0.543799,0.861251,-0.007097,-0.017747,0,0.116862,0,0,0,0,0,1,0,0,0,0,0,0,0,0,0
847,'2025/06/30 16:19:49:982',41,0.277493,0.145147,-0.049516,-0.055307,-0.123863,0.260588,0,-0.302651,0.029389,-0.004264,-0.156374,0.575517,0.85419,-0.011963,0.543799,0.861251,-0.007097,-0.017747,0,0.116862,0,0,0,0,0,1,0,0,0,0,0,0,0,0,0
848,'2025/06/30 16:19:49:988',41,0.277493,0.145147,-0.049516,-0.055307,-0.123863,0.260588,0,-0.302651,0.029389,-0.004264,-0.156374,0.575517,0.85419,-0.011963,0.543799,0.861251,-0.007097,-0.017747,0,0.116862,0,0,0,0,0,1,0,0,0,0,0,0,0,0,0
849,'2025/06/30 16:19:49:993',41,0.277493,0.145147,-0.049516,-0.055307,-0.123863,0.260588,0,-0.302651,0.029389,-0.004264,-0.156374,0.575517,0.85419,-0.011963,0.543799,0.861251,-0.007097,-0.017747,0,0.116862,0,0,0,0,0,1,0,0,0,0,0,0,0,0,0
850,'2025/06/30 16:19:49:999',41,0.277493,0.145147,-0.049516,-0.055307,-0.123863,0.260588,0,-0.302651,0.029389,-0.004264,-0.156374,0.575517,0.85419,-0.011963,0.543799,0.861251,-0.007097,-0.017747,0,0.116862,0,0,0,0,0,1,0,0,0,0,0,0,0,0,0
851,'2025/06/30 16:19:50:004',41,0.277493,0.145147,-0.049516,-0.055307,-0.123863,0.260588,0,-0.302651,0.029389,-0.004264,-0.156374,0.575517,0.85419,-0.011963,0.543799,0.861251,-0.007097,-0.017747,0,0.116862,0,0,0,0,0,1,0,0,0,0,0,0,0,0,0
852,'2025/06/30 16:19:50:009',41,0.277493,0.145147,-0.049516,-0.055307,-0.123863,0.260588,0,-0.302651,0.029389,-0.004264,-0.156374,0.575517,0.85419,-0.011963,0.543799,0.861251,-0.007097,-0.017747,0,0.116862,0,0,0,0,0,1,0,0,0,0,0,0,0,0,0
853,'2025/06/30 16:19:50:014',41,0.277493,0.145147,-0.049516,-0.055307,-0.123863,0.260588,0,-0.302651,0.029389,-0.004264,-0.156374,0.575517,0.85419,-0.011963,0.543799,0.861251,-0.007097,-0.017747,0,0.116862,0,0,0,0,0,1,0,0,0,0,0,0,0,0,0
854,'2025/06/30 16:19:50:021',41,0.277493,0.145147,-0.049516,-0.055307,-0.123863,0.260588,0,-0.302651,0.029389,-0.004264,-0.156374,0.575517,0.85419,-0.011963,0.543799,0.861251,-0.007097,-0.017747,0,0.116862,0,0,0,0,0,1,0,0,0,0,0,0,0,0,0
855,'2025/06/30 16:19:50:025',41,0.277493,0.145147,-0.049516,-0.055307,-0.123863,0.260588,0,-0.302651,0.029389,-0.004264,-0.156374,0.575517,0.85419,-0.011963,0.543799,0.861251,-0.007097,-0.017747,0,0.116862,0,0,0,0,0,1,0,0,0,0,0,0,0,0,0
856,'2025/06/30 16:19:50:032',41,0.277493,0.145147,-0.049516,-0.055307,-0.123863,0.260588,0,-0.302651,0.029389,-0.004264,-0.156374,0.575517,0.85419,-0.011963,0.543799,0.861251,-0.007097,-0.017747,0,0.116862,0,0,0,0,0,1,0,0,0,0,0,0,0,0,0
857,'2025/06/30 16:19:50:038',41,0.277493,0.145147,-0.049516,-0.055307,-0.123863,0.260588,0,-0.302651,0.029389,-0.004264,-0.156374,0.575517,0.85419,-0.011963,0.543799,0.861251,-0.007097,-0.017747,0,0.116862,0,0,0,0,0,1,0,0,0,0,0,0,0,0,0
858,'2025/06/30 16:19:50:044',41,0.277493,0.145147,-0.049516,-0.055307,-0.123863,0.260588,0,-0.302651,0.029389,-0.004264,-0.156374,0.575517,0.85419,-0.011963,0.543799,0.861251,-0.007097,-0.017747,0,0.116862,0,0,0,0,0,1,0,0,0,0,0,0,0,0,0
859,'2025/06/30 16:19:50:048',41,0.277493,0.145147,-0.049516,-0.055307,-0.123863,0.260588,0,-0.302651,0.029389,-0.004264,-0.156374,0.575517,0.85419,-0.011963,0.543799,0.861251,-0.007097,-0.017747,0,0.116862,0,0,0,0,0,1,0,0,0,0,0,0,0,0,0
860,'2025/06/30 16:19:50:055',41,0.277493,0.145147,-0.049516,-0.055307,-0.123863,0.260588,0,-0.302651,0.029389,-0.004264,-0.156374,0.575517,0.85419,-0.011963,0.543799,0.861251,-0.007097,-0.017747,0,0.116862,0,0,0,0,0,1,0,0,0,0,0,0,0,0,0
861,'2025/06/30 16:19:50:061',41,0.277493,0.145147,-0.049516,-0.055307,-0.123863,0.260588,0,-0.302651,0.029389,-0.004264,-0.156374,0.575517,0.85419,-0.011963,0.543799,0.861251,-0.007097,-0.017747,0,0.116862,0,0,0,0,0,1,0,0,0,0,0,0,0,0,0
862,'2025/06/30 16:19:56:424',42,0.244092,0.085166,-0.049516,-0.055307,-0.095278,0.246046,0,-0.268414,0.020448,-0.004264,-0.095981,0.575517,0.85419,-0.011963,0.543799,0.861251,-0.007097,-0.013651,0,0.088034,0,0,0,0,0,1,0,0,0,0,0,0,0,0,0
863,'2025/06/30 16:19:56:429',42,0.244092,0.085166,-0.049516,-0.055307,-0.095278,0.246046,0,-0.268414,0.020448,-0.004264,-0.095981,0.575517,0.85419,-0.011963,0.543799,0.861251,-0.007097,-0.013651,0,0.088034,0,0,0,0,0,1,0,0,0,0,0,0,0,0,0
864,'2025/06/30 16:19:56:433',42,0.244092,0.085166,-0.049516,-0.055307,-0.095278,0.246046,0,-0.268414,0.020448,-0.004264,-0.095981,0.575517,0.85419,-0.011963,0.543799,0.861251,-0.007097,-0.013651,0,0.088034,0,0,0,0,0,1,0,0,0,0,0,0,0,0,0
865,'2025/06/30 16:19:56:437',42,0.244092,0.085166,-0.049516,-0.055307,-0.095278,0.246046,0,-0.268414,0.020448,-0.004264,-0.095981,0.575517,0.85419,-0.011963,0.543799,0.861251,-0.007097,-0.013651,0,0.088034,0,0,0,0,0,1,0,0,0,0,0,0,0,0,0
866,'2025/06/30 16:19:56:441',42,0.244092,0.085166,-0.049516,-0.055307,-0.095278,0.246046,0,-0.268414,0.020448,-0.004264,-0.095981,0.575517,0.85419,-0.011963,0.543799,0.861251,-0.007097,-0.013651,0,0.088034,0,0,0,0,0,1,0,0,0,0,0,0,0,0,0
867,'2025/06/30 16:19:56:446',42,0.244092,0.085166,-0.049516,-0.055307,-0.095278,0.246046,0,-0.268414,0.020448,-0.004264,-0.095981,0.575517,0.85419,-0.011963,0.543799,0.861251,-0.007097,-0.013651,0,0.088034,0,0,0,0,0,1,0,0,0,0,0,0,0,0,0
868,'2025/06/30 16:19:56:452',42,0.244092,0.085166,-0.049516,-0.055307,-0.095278,0.246046,0,-0.268414,0.020448,-0.004264,-0.095981,0.575517,0.85419,-0.011963,0.543799,0.861251,-0.007097,-0.013651,0,0.088034,0,0,0,0,0,1,0,0,0,0,0,0,0,0,0
869,'2025/06/30 16:19:56:457',42,0.244092,0.085166,-0.049516,-0.055307,-0.095278,0.246046,0,-0.268414,0.020448,-0.004264,-0.095981,0.575517,0.85419,-0.011963,0.543799,0.861251,-0.007097,-0.013651,0,0.088034,0,0,0,0,0,1,0,0,0,0,0,0,0,0,0
870,'2025/06/30 16:19:56:461',42,0.244092,0.085166,-0.049516,-0.055307,-0.095278,0.246046,0,-0.268414,0.020448,-0.004264,-0.095981,0.575517,0.85419,-0.011963,0.543799,0.861251,-0.007097,-0.013651,0,0.088034,0,0,0,0,0,1,0,0,0,0,0,0,0,0,0
871,'2025/06/30 16:19:56:467',42,0.244092,0.085166,-0.049516,-0.055307,-0.095278,0.246046,0,-0.268414,0.020448,-0.004264,-0.095981,0.575517,0.85419,-0.011963,0.543799,0.861251,-0.007097,-0.013651,0,0.088034,0,0,0,0,0,1,0,0,0,0,0,0,0,0,0
872,'2025/06/30 16:19:56:471',42,0.244092,0.085166,-0.049516,-0.055307,-0.095278,0.246046,0,-0.268414,0.020448,-0.004264,-0.095981,0.575517,0.85419,-0.011963,0.543799,0.861251,-0.007097,-0.013651,0,0.088034,0,0,0,0,0,1,0,0,0,0,0,0,0,0,0
873,'2025/06/30 16:19:56:477',42,0.244092,0.085166,-0.049516,-0.055307,-0.095278,0.246046,0,-0.268414,0.020448,-0.004264,-0.095981,0.575517,0.85419,-0.011963,0.543799,0.861251,-0.007097,-0.013651,0,0.088034,0,0,0,0,0,1,0,0,0,0,0,0,0,0,0
874,'2025/06/30 16:19:56:481',42,0.244092,0.085166,-0.049516,-0.055307,-0.095278,0.246046,0,-0.268414,0.020448,-0.004264,-0.095981,0.575517,0.85419,-0.011963,0.543799,0.861251,-0.007097,-0.013651,0,0.088034,0,0,0,0,0,1,0,0,0,0,0,0,0,0,0
875,'2025/06/30 16:19:56:487',42,0.244092,0.085166,-0.049516,-0.055307,-0.095278,0.246046,0,-0.268414,0.020448,-0.004264,-0.095981,0.575517,0.85419,-0.011963,0.543799,0.861251,-0.007097,-0.013651,0,0.088034,0,0,0,0,0,1,0,0,0,0,0,0,0,0,0
876,'2025/06/30 16:19:56:493',42,0.244092,0.085166,-0.049516,-0.055307,-0.095278,0.246046,0,-0.268414,0.020448,-0.004264,-0.095981,0.575517,0.85419,-0.011963,0.543799,0.861251,-0.007097,-0.013651,0,0.088034,0,0,0,0,0,1,0,0,0,0,0,0,0,0,0
877,'2025/06/30 16:19:56:497',42,0.244092,0.085166,-0.049516,-0.055307,-0.095278,0.246046,0,-0.268414,0.020448,-0.004264,-0.095981,0.575517,0.85419,-0.011963,0.543799,0.861251,-0.007097,-0.013651,0,0.088034,0,0,0,0,0,1,0,0,0,0,0,0,0,0,0
878,'2025/06/30 16:19:56:504',42,0.244092,0.085166,-0.049516,-0.055307,-0.095278,0.246046,0,-0.268414,0.020448,-0.004264,-0.095981,0.575517,0.85419,-0.011963,0.543799,0.861251,-0.007097,-0.013651,0,0.088034,0,0,0,0,0,1,0,0,0,0,0,0,0,0,0
879,'2025/06/30 16:19:56:510',42,0.244092,0.085166,-0.049516,-0.055307,-0.095278,0.246046,0,-0.268414,0.020448,-0.004264,-0.095981,0.575517,0.85419,-0.011963,0.543799,0.861251,-0.007097,-0.013651,0,0.088034,0,0,0,0,0,1,0,0,0,0,0,0,0,0,0
880,'2025/06/30 16:19:56:515',42,0.244092,0.085166,-0.049516,-0.055307,-0.095278,0.246046,0,-0.268414,0.020448,-0.004264,-0.095981,0.575517,0.85419,-0.011963,0.543799,0.861251,-0.007097,-0.013651,0,0.088034,0,0,0,0,0,1,0,0,0,0,0,0,0,0,0
881,'2025/06/30 16:19:56:521',42,0.244092,0.085166,-0.049516,-0.055307,-0.095278,0.246046,0,-0.268414,0.020448,-0.004264,-0.095981,0.575517,0.85419,-0.011963,0.543799,0.861251,-0.007097,-0.013651,0,0.088034,0,0,0,0,0,1,0,0,0,0,0,0,0,0,0
882,'2025/06/30 16:19:56:526',42,0.244092,0.085166,-0.049516,-0.055307,-0.095278,0.246046,0,-0.268414,0.020448,-0.004264,-0.095981,0.575517,0.85419,-0.011963,0.543799,0.861251,-0.007097,-0.013651,0,0.088034,0,0,0,0,0,1,0,0,0,0,0,0,0,0,0
883,'2025/06/30 16:19:56:532',42,0.244092,0.085166,-0.049516,-0.055307,-0.095278,0.246046,0,-0.268414,0.020448,-0.004264,-0.095981,0.575517,0.85419,-0.011963,0.543799,0.861251,-0.007097,-0.013651,0,0.088034,0,0,0,0,0,1,0,0,0,0,0,0,0,0,0
884,'2025/06/30 16:19:56:536',42,0.244092,0.085166,-0.049516,-0.055307,-0.095278,0.246046,0,-0.268414,0.020448,-0.004264,-0.095981,0.575517,0.85419,-0.011963,0.543799,0.861251,-0.007097,-0.013651,0,0.088034,0,0,0,0,0,1,0,0,0,0,0,0,0,0,0
885,'2025/06/30 16:19:56:542',42,0.244092,0.085166,-0.049516,-0.055307,-0.095278,0.246046,0,-0.268414,0.020448,-0.004264,-0.095981,0.575517,0.85419,-0.011963,0.543799,0.861251,-0.007097,-0.013651,0,0.088034,0,0,0,0,0,1,0,0,0,0,0,0,0,0,0
886,'2025/06/30 16:19:56:547',42,0.244092,0.085166,-0.049516,-0.055307,-0.095278,0.246046,0,-0.268414,0.020448,-0.004264,-0.095981,0.575517,0.85419,-0.011963,0.543799,0.861251,-0.007097,-0.013651,0,0.088034,0,0,0,0,0,1,0,0,0,0,0,0,0,0,0
887,'2025/06/30 16:19:56:552',42,0.244092,0.085166,-0.049516,-0.055307,-0.095278,0.246046,0,-0.268414,0.020448,-0.004264,-0.095981,0.575517,0.85419,-0.011963,0.543799,0.861251,-0.007097,-0.013651,0,0.088034,0,0,0,0,0,1,0,0,0,0,0,0,0,0,0
888,'2025/06/30 16:19:56:557',42,0.244092,0.085166,-0.049516,-0.055307,-0.095278,0.246046,0,-0.268414,0.020448,-0.004264,-0.095981,0.575517,0.85419,-0.011963,0.543799,0.861251,-0.007097,-0.013651,0,0.088034,0,0,0,0,0,1,0,0,0,0,0,0,0,0,0
889,'2025/06/30 16:20:06:022',43,0.244092,0.085166,-0.0563,-0.0572,-0.095278,0.246046,0,-0.268414,0.020448,-0.004264,-0.095981,0.583096,0.799216,-0.003269,0.562952,0.817302,-0.005001,-0.013651,0,0.088034,0,0,0,0,0,1,0,0,0,0,0,0,0,0,0
890,'2025/06/30 16:20:06:028',43,0.244092,0.085166,-0.0563,-0.0572,-0.095278,0.246046,0,-0.268414,0.020448,-0.004264,-0.095981,0.583096,0.799216,-0.003269,0.562952,0.817302,-0.005001,-0.013651,0,0.088034,0,0,0,0,0,1,0,0,0,0,0,0,0,0,0
891,'2025/06/30 16:20:06:034',43,0.244092,0.085166,-0.0563,-0.0572,-0.095278,0.246046,0,-0.268414,0.020448,-0.004264,-0.095981,0.583096,0.799216,-0.003269,0.562952,0.817302,-0.005001,-0.013651,0,0.088034,0,0,0,0,0,1,0,0,0,0,0,0,0,0,0
892,'2025/06/30 16:20:06:042',43,0.244092,0.085166,-0.0563,-0.0572,-0.095278,0.246046,0,-0.268414,0.020448,-0.004264,-0.095981,0.583096,0.799216,-0.003269,0.562952,0.817302,-0.005001,-0.013651,0,0.088034,0,0,0,0,0,1,0,0,0,0,0,0,0,0,0
893,'2025/06/30 16:20:06:048',43,0.244092,0.085166,-0.0563,-0.0572,-0.095278,0.246046,0,-0.268414,0.020448,-0.004264,-0.095981,0.583096,0.799216,-0.003269,0.562952,0.817302,-0.005001,-0.013651,0,0.088034,0,0,0,0,0,1,0,0,0,0,0,0,0,0,0
894,'2025/06/30 16:20:06:054',43,0.244092,0.085166,-0.0563,-0.0572,-0.095278,0.246046,0,-0.268414,0.020448,-0.004264,-0.095981,0.583096,0.799216,-0.003269,0.562952,0.817302,-0.005001,-0.013651,0,0.088034,0,0,0,0,0,1,0,0,0,0,0,0,0,0,0
895,'2025/06/30 16:20:06:062',43,0.244092,0.085166,-0.0563,-0.0572,-0.095278,0.246046,0,-0.268414,0.020448,-0.004264,-0.095981,0.583096,0.799216,-0.003269,0.562952,0.817302,-0.005001,-0.013651,0,0.088034,0,0,0,0,0,1,0,0,0,0,0,0,0,0,0
896,'2025/06/30 16:20:06:068',43,0.244092,0.085166,-0.0563,-0.0572,-0.095278,0.246046,0,-0.268414,0.020448,-0.004264,-0.095981,0.583096,0.799216,-0.003269,0.562952,0.817302,-0.005001,-0.013651,0,0.088034,0,0,0,0,0,1,0,0,0,0,0,0,0,0,0
897,'2025/06/30 16:20:06:076',43,0.244092,0.085166,-0.0563,-0.0572,-0.095278,0.246046,0,-0.268414,0.020448,-0.004264,-0.095981,0.583096,0.799216,-0.003269,0.562952,0.817302,-0.005001,-0.013651,0,0.088034,0,0,0,0,0,1,0,0,0,0,0,0,0,0,0
898,'2025/06/30 16:20:06:083',43,0.244092,0.085166,-0.0563,-0.0572,-0.095278,0.246046,0,-0.268414,0.020448,-0.004264,-0.095981,0.583096,0.799216,-0.003269,0.562952,0.817302,-0.005001,-0.013651,0,0.088034,0,0,0,0,0,1,0,0,0,0,0,0,0,0,0
899,'2025/06/30 16:20:06:090',43,0.244092,0.085166,-0.0563,-0.0572,-0.095278,0.246046,0,-0.268414,0.020448,-0.004264,-0.095981,0.583096,0.799216,-0.003269,0.562952,0.817302,-0.005001,-0.013651,0,0.088034,0,0,0,0,0,1,0,0,0,0,0,0,0,0,0
900,'2025/06/30 16:20:06:096',43,0.244092,0.085166,-0.0563,-0.0572,-0.095278,0.246046,0,-0.268414,0.020448,-0.004264,-0.095981,0.583096,0.799216,-0.003269,0.562952,0.817302,-0.005001,-0.013651,0,0.088034,0,0,0,0,0,1,0,0,0,0,0,0,0,0,0
901,'2025/06/30 16:20:06:102',43,0.244092,0.085166,-0.0563,-0.0572,-0.095278,0.246046,0,-0.268414,0.020448,-0.004264,-0.095981,0.583096,0.799216,-0.003269,0.562952,0.817302,-0.005001,-0.013651,0,0.088034,0,0,0,0,0,1,0,0,0,0,0,0,0,0,0
902,'2025/06/30 16:20:06:109',43,0.244092,0.085166,-0.0563,-0.0572,-0.095278,0.246046,0,-0.268414,0.020448,-0.004264,-0.095981,0.583096,0.799216,-0.003269,0.562952,0.817302,-0.005001,-0.013651,0,0.088034,0,0,0,0,0,1,0,0,0,0,0,0,0,0,0
903,'2025/06/30 16:20:06:115',43,0.244092,0.085166,-0.0563,-0.0572,-0.095278,0.246046,0,-0.268414,0.020448,-0.004264,-0.095981,0.583096,0.799216,-0.003269,0.562952,0.817302,-0.005001,-0.013651,0,0.088034,0,0,0,0,0,1,0,0,0,0,0,0,0,0,0
904,'2025/06/30 16:20:06:122',43,0.244092,0.085166,-0.0563,-0.0572,-0.095278,0.246046,0,-0.268414,0.020448,-0.004264,-0.095981,0.583096,0.799216,-0.003269,0.562952,0.817302,-0.005001,-0.013651,0,0.088034,0,0,0,0,0,1,0,0,0,0,0,0,0,0,0
905,'2025/06/30 16:20:06:128',43,0.244092,0.085166,-0.0563,-0.0572,-0.095278,0.246046,0,-0.268414,0.020448,-0.004264,-0.095981,0.583096,0.799216,-0.003269,0.562952,0.817302,-0.005001,-0.013651,0,0.088034,0,0,0,0,0,1,0,0,0,0,0,0,0,0,0
906,'2025/06/30 16:20:06:132',43,0.244092,0.085166,-0.0563,-0.0572,-0.095278,0.246046,0,-0.268414,0.020448,-0.004264,-0.095981,0.583096,0.799216,-0.003269,0.562952,0.817302,-0.005001,-0.013651,0,0.088034,0,0,0,0,0,1,0,0,0,0,0,0,0,0,0
907,'2025/06/30 16:20:06:137',43,0.244092,0.085166,-0.0563,-0.0572,-0.095278,0.246046,0,-0.268414,0.020448,-0.004264,-0.095981,0.583096,0.799216,-0.003269,0.562952,0.817302,-0.005001,-0.013651,0,0.088034,0,0,0,0,0,1,0,0,0,0,0,0,0,0,0
908,'2025/06/30 16:20:06:143',43,0.244092,0.085166,-0.0563,-0.0572,-0.095278,0.246046,0,-0.268414,0.020448,-0.004264,-0.095981,0.583096,0.799216,-0.003269,0.562952,0.817302,-0.005001,-0.013651,0,0.088034,0,0,0,0,0,1,0,0,0,0,0,0,0,0,0
909,'2025/06/30 16:20:06:148',43,0.244092,0.085166,-0.0563,-0.0572,-0.095278,0.246046,0,-0.268414,0.020448,-0.004264,-0.095981,0.583096,0.799216,-0.003269,0.562952,0.817302,-0.005001,-0.013651,0,0.088034,0,0,0,0,0,1,0,0,0,0,0,0,0,0,0
910,'2025/06/30 16:20:06:153',43,0.244092,0.085166,-0.0563,-0.0572,-0.095278,0.246046,0,-0.268414,0.020448,-0.004264,-0.095981,0.583096,0.799216,-0.003269,0.562952,0.817302,-0.005001,-0.013651,0,0.088034,0,0,0,0,0,1,0,0,0,0,0,0,0,0,0
911,'2025/06/30 16:20:06:159',43,0.244092,0.085166,-0.0563,-0.0572,-0.095278,0.246046,0,-0.268414,0.020448,-0.004264,-0.095981,0.583096,0.799216,-0.003269,0.562952,0.817302,-0.005001,-0.013651,0,0.088034,0,0,0,0,0,1,0,0,0,0,0,0,0,0,0
912,'2025/06/30 16:20:12:316',44,0.342192,0.189274,-0.0563,-0.0572,-0.131262,0.261625,0,-0.36706,0.035409,-0.004264,-0.200741,0.583096,0.799216,-0.003269,0.562952,0.817302,-0.005001,-0.018807,0,0.124326,0,0,0,0,0,1,0,0,0,0,0,0,0,0,0
913,'2025/06/30 16:20:12:322',44,0.342192,0.189274,-0.0563,-0.0572,-0.131262,0.261625,0,-0.36706,0.035409,-0.004264,-0.200741,0.583096,0.799216,-0.003269,0.562952,0.817302,-0.005001,-0.018807,0,0.124326,0,0,0,0,0,1,0,0,0,0,0,0,0,0,0
914,'2025/06/30 16:20:12:327',44,0.342192,0.189274,-0.0563,-0.0572,-0.131262,0.261625,0,-0.36706,0.035409,-0.004264,-0.200741,0.583096,0.799216,-0.003269,0.562952,0.817302,-0.005001,-0.018807,0,0.124326,0,0,0,0,0,1,0,0,0,0,0,0,0,0,0
915,'2025/06/30 16:20:12:331',44,0.342192,0.189274,-0.0563,-0.0572,-0.131262,0.261625,0,-0.36706,0.035409,-0.004264,-0.200741,0.583096,0.799216,-0.003269,0.562952,0.817302,-0.005001,-0.018807,0,0.124326,0,0,0,0,0,1,0,0,0,0,0,0,0,0,0
916,'2025/06/30 16:20:12:336',44,0.342192,0.189274,-0.0563,-0.0572,-0.131262,0.261625,0,-0.36706,0.035409,-0.004264,-0.200741,0.583096,0.799216,-0.003269,0.562952,0.817302,-0.005001,-0.018807,0,0.124326,0,0,0,0,0,1,0,0,0,0,0,0,0,0,0
917,'2025/06/30 16:20:12:342',44,0.342192,0.189274,-0.0563,-0.0572,-0.131262,0.261625,0,-0.36706,0.035409,-0.004264,-0.200741,0.583096,0.799216,-0.003269,0.562952,0.817302,-0.005001,-0.018807,0,0.124326,0,0,0,0,0,1,0,0,0,0,0,0,0,0,0
918,'2025/06/30 16:20:12:348',44,0.342192,0.189274,-0.0563,-0.0572,-0.131262,0.261625,0,-0.36706,0.035409,-0.004264,-0.200741,0.583096,0.799216,-0.003269,0.562952,0.817302,-0.005001,-0.018807,0,0.124326,0,0,0,0,0,1,0,0,0,0,0,0,0,0,0
919,'2025/06/30 16:20:12:353',44,0.342192,0.189274,-0.0563,-0.0572,-0.131262,0.261625,0,-0.36706,0.035409,-0.004264,-0.200741,0.583096,0.799216,-0.003269,0.562952,0.817302,-0.005001,-0.018807,0,0.124326,0,0,0,0,0,1,0,0,0,0,0,0,0,0,0
920,'2025/06/30 16:20:12:359',44,0.342192,0.189274,-0.0563,-0.0572,-0.131262,0.261625,0,-0.36706,0.035409,-0.004264,-0.200741,0.583096,0.799216,-0.003269,0.562952,0.817302,-0.005001,-0.018807,0,0.124326,0,0,0,0,0,1,0,0,0,0,0,0,0,0,0
921,'2025/06/30 16:20:12:365',44,0.342192,0.189274,-0.0563,-0.0572,-0.131262,0.261625,0,-0.36706,0.035409,-0.004264,-0.200741,0.583096,0.799216,-0.003269,0.562952,0.817302,-0.005001,-0.018807,0,0.124326,0,0,0,0,0,1,0,0,0,0,0,0,0,0,0
922,'2025/06/30 16:20:12:371',44,0.342192,0.189274,-0.0563,-0.0572,-0.131262,0.261625,0,-0.36706,0.035409,-0.004264,-0.200741,0.583096,0.799216,-0.003269,0.562952,0.817302,-0.005001,-0.018807,0,0.124326,0,0,0,0,0,1,0,0,0,0,0,0,0,0,0
923,'2025/06/30 16:20:12:376',44,0.342192,0.189274,-0.0563,-0.0572,-0.131262,0.261625,0,-0.36706,0.035409,-0.004264,-0.200741,0.583096,0.799216,-0.003269,0.562952,0.817302,-0.005001,-0.018807,0,0.124326,0,0,0,0,0,1,0,0,0,0,0,0,0,0,0
924,'2025/06/30 16:20:12:382',44,0.342192,0.189274,-0.0563,-0.0572,-0.131262,0.261625,0,-0.36706,0.035409,-0.004264,-0.200741,0.583096,0.799216,-0.003269,0.562952,0.817302,-0.005001,-0.018807,0,0.124326,0,0,0,0,0,1,0,0,0,0,0,0,0,0,0
925,'2025/06/30 16:20:12:387',44,0.342192,0.189274,-0.0563,-0.0572,-0.131262,0.261625,0,-0.36706,0.035409,-0.004264,-0.200741,0.583096,0.799216,-0.003269,0.562952,0.817302,-0.005001,-0.018807,0,0.124326,0,0,0,0,0,1,0,0,0,0,0,0,0,0,0
926,'2025/06/30 16:20:12:393',44,0.342192,0.189274,-0.0563,-0.0572,-0.131262,0.261625,0,-0.36706,0.035409,-0.004264,-0.200741,0.583096,0.799216,-0.003269,0.562952,0.817302,-0.005001,-0.018807,0,0.124326,0,0,0,0,0,1,0,0,0,0,0,0,0,0,0
927,'2025/06/30 16:20:12:398',44,0.342192,0.189274,-0.0563,-0.0572,-0.131262,0.261625,0,-0.36706,0.035409,-0.004264,-0.200741,0.583096,0.799216,-0.003269,0.562952,0.817302,-0.005001,-0.018807,0,0.124326,0,0,0,0,0,1,0,0,0,0,0,0,0,0,0
928,'2025/06/30 16:20:12:404',44,0.342192,0.189274,-0.0563,-0.0572,-0.131262,0.261625,0,-0.36706,0.035409,-0.004264,-0.200741,0.583096,0.799216,-0.003269,0.562952,0.817302,-0.005001,-0.018807,0,0.124326,0,0,0,0,0,1,0,0,0,0,0,0,0,0,0
929,'2025/06/30 16:20:12:409',44,0.342192,0.189274,-0.0563,-0.0572,-0.131262,0.261625,0,-0.36706,0.035409,-0.004264,-0.200741,0.583096,0.799216,-0.003269,0.562952,0.817302,-0.005001,-0.018807,0,0.124326,0,0,0,0,0,1,0,0,0,0,0,0,0,0,0
930,'2025/06/30 16:20:12:414',44,0.342192,0.189274,-0.0563,-0.0572,-0.131262,0.261625,0,-0.36706,0.035409,-0.004264,-0.200741,0.583096,0.799216,-0.003269,0.562952,0.817302,-0.005001,-0.018807,0,0.124326,0,0,0,0,0,1,0,0,0,0,0,0,0,0,0
931,'2025/06/30 16:20:12:420',44,0.342192,0.189274,-0.0563,-0.0572,-0.131262,0.261625,0,-0.36706,0.035409,-0.004264,-0.200741,0.583096,0.799216,-0.003269,0.562952,0.817302,-0.005001,-0.018807,0,0.124326,0,0,0,0,0,1,0,0,0,0,0,0,0,0,0
932,'2025/06/30 16:20:12:425',44,0.342192,0.189274,-0.0563,-0.0572,-0.131262,0.261625,0,-0.36706,0.035409,-0.004264,-0.200741,0.583096,0.799216,-0.003269,0.562952,0.817302,-0.005001,-0.018807,0,0.124326,0,0,0,0,0,1,0,0,0,0,0,0,0,0,0
933,'2025/06/30 16:20:12:430',44,0.342192,0.189274,-0.0563,-0.0572,-0.131262,0.261625,0,-0.36706,0.035409,-0.004264,-0.200741,0.583096,0.799216,-0.003269,0.562952,0.817302,-0.005001,-0.018807,0,0.124326,0,0,0,0,0,1,0,0,0,0,0,0,0,0,0
934,'2025/06/30 16:20:12:436',44,0.342192,0.189274,-0.0563,-0.0572,-0.131262,0.261625,0,-0.36706,0.035409,-0.004264,-0.200741,0.583096,0.799216,-0.003269,0.562952,0.817302,-0.005001,-0.018807,0,0.124326,0,0,0,0,0,1,0,0,0,0,0,0,0,0,0
935,'2025/06/30 16:20:58:278',45,0.342192,0.085475,-0.057885,-0.056646,-0.131262,0.261625,0,-0.36706,0.019808,-0.004264,-0.096245,0.596707,0.746802,-0.001366,0.564995,0.784677,-0.004963,-0.018807,0,0.124326,0,0,0,0,0,1,0,0,0,0,0,0,0,0,0
936,'2025/06/30 16:20:58:284',45,0.342192,0.085475,-0.057885,-0.056646,-0.131262,0.261625,0,-0.36706,0.019808,-0.004264,-0.096245,0.596707,0.746802,-0.001366,0.564995,0.784677,-0.004963,-0.018807,0,0.124326,0,0,0,0,0,1,0,0,0,0,0,0,0,0,0
937,'2025/06/30 16:20:58:290',45,0.342192,0.085475,-0.057885,-0.056646,-0.131262,0.261625,0,-0.36706,0.019808,-0.004264,-0.096245,0.596707,0.746802,-0.001366,0.564995,0.784677,-0.004963,-0.018807,0,0.124326,0,0,0,0,0,1,0,0,0,0,0,0,0,0,0
938,'2025/06/30 16:20:58:295',45,0.342192,0.085475,-0.057885,-0.056646,-0.131262,0.261625,0,-0.36706,0.019808,-0.004264,-0.096245,0.596707,0.746802,-0.001366,0.564995,0.784677,-0.004963,-0.018807,0,0.124326,0,0,0,0,0,1,0,0,0,0,0,0,0,0,0
939,'2025/06/30 16:20:58:300',45,0.342192,0.085475,-0.057885,-0.056646,-0.131262,0.261625,0,-0.36706,0.019808,-0.004264,-0.096245,0.596707,0.746802,-0.001366,0.564995,0.784677,-0.004963,-0.018807,0,0.124326,0,0,0,0,0,1,0,0,0,0,0,0,0,0,0
940,'2025/06/30 16:20:58:306',45,0.342192,0.085475,-0.057885,-0.056646,-0.131262,0.261625,0,-0.36706,0.019808,-0.004264,-0.096245,0.596707,0.746802,-0.001366,0.564995,0.784677,-0.004963,-0.018807,0,0.124326,0,0,0,0,0,1,0,0,0,0,0,0,0,0,0
941,'2025/06/30 16:20:58:311',45,0.342192,0.085475,-0.057885,-0.056646,-0.131262,0.261625,0,-0.36706,0.019808,-0.004264,-0.096245,0.596707,0.746802,-0.001366,0.564995,0.784677,-0.004963,-0.018807,0,0.124326,0,0,0,0,0,1,0,0,0,0,0,0,0,0,0
942,'2025/06/30 16:20:58:317',45,0.342192,0.085475,-0.057885,-0.056646,-0.131262,0.261625,0,-0.36706,0.019808,-0.004264,-0.096245,0.596707,0.746802,-0.001366,0.564995,0.784677,-0.004963,-0.018807,0,0.124326,0,0,0,0,0,1,0,0,0,0,0,0,0,0,0
943,'2025/06/30 16:20:58:322',45,0.342192,0.085475,-0.057885,-0.056646,-0.131262,0.261625,0,-0.36706,0.019808,-0.004264,-0.096245,0.596707,0.746802,-0.001366,0.564995,0.784677,-0.004963,-0.018807,0,0.124326,0,0,0,0,0,1,0,0,0,0,0,0,0,0,0
944,'2025/06/30 16:20:58:327',45,0.342192,0.085475,-0.057885,-0.056646,-0.131262,0.261625,0,-0.36706,0.019808,-0.004264,-0.096245,0.596707,0.746802,-0.001366,0.564995,0.784677,-0.004963,-0.018807,0,0.124326,0,0,0,0,0,1,0,0,0,0,0,0,0,0,0
945,'2025/06/30 16:20:58:333',45,0.342192,0.085475,-0.057885,-0.056646,-0.131262,0.261625,0,-0.36706,0.019808,-0.004264,-0.096245,0.596707,0.746802,-0.001366,0.564995,0.784677,-0.004963,-0.018807,0,0.124326,0,0,0,0,0,1,0,0,0,0,0,0,0,0,0
946,'2025/06/30 16:20:58:338',45,0.342192,0.085475,-0.057885,-0.056646,-0.131262,0.261625,0,-0.36706,0.019808,-0.004264,-0.096245,0.596707,0.746802,-0.001366,0.564995,0.784677,-0.004963,-0.018807,0,0.124326,0,0,0,0,0,1,0,0,0,0,0,0,0,0,0
947,'2025/06/30 16:20:58:344',45,0.342192,0.085475,-0.057885,-0.056646,-0.131262,0.261625,0,-0.36706,0.019808,-0.004264,-0.096245,0.596707,0.746802,-0.001366,0.564995,0.784677,-0.004963,-0.018807,0,0.124326,0,0,0,0,0,1,0,0,0,0,0,0,0,0,0
948,'2025/06/30 16:20:58:350',45,0.342192,0.085475,-0.057885,-0.056646,-0.131262,0.261625,0,-0.36706,0.019808,-0.004264,-0.096245,0.596707,0.746802,-0.001366,0.564995,0.784677,-0.004963,-0.018807,0,0.124326,0,0,0,0,0,1,0,0,0,0,0,0,0,0,0
949,'2025/06/30 16:20:58:354',45,0.342192,0.085475,-0.057885,-0.056646,-0.131262,0.261625,0,-0.36706,0.019808,-0.004264,-0.096245,0.596707,0.746802,-0.001366,0.564995,0.784677,-0.004963,-0.018807,0,0.124326,0,0,0,0,0,1,0,0,0,0,0,0,0,0,0
950,'2025/06/30 16:20:58:359',45,0.342192,0.085475,-0.057885,-0.056646,-0.131262,0.261625,0,-0.36706,0.019808,-0.004264,-0.096245,0.596707,0.746802,-0.001366,0.564995,0.784677,-0.004963,-0.018807,0,0.124326,0,0,0,0,0,1,0,0,0,0,0,0,0,0,0
951,'2025/06/30 16:20:58:365',45,0.342192,0.085475,-0.057885,-0.056646,-0.131262,0.261625,0,-0.36706,0.019808,-0.004264,-0.096245,0.596707,0.746802,-0.001366,0.564995,0.784677,-0.004963,-0.018807,0,0.124326,0,0,0,0,0,1,0,0,0,0,0,0,0,0,0
952,'2025/06/30 16:20:58:371',45,0.342192,0.085475,-0.057885,-0.056646,-0.131262,0.261625,0,-0.36706,0.019808,-0.004264,-0.096245,0.596707,0.746802,-0.001366,0.564995,0.784677,-0.004963,-0.018807,0,0.124326,0,0,0,0,0,1,0,0,0,0,0,0,0,0,0
953,'2025/06/30 16:20:58:376',45,0.342192,0.085475,-0.057885,-0.056646,-0.131262,0.261625,0,-0.36706,0.019808,-0.004264,-0.096245,0.596707,0.746802,-0.001366,0.564995,0.784677,-0.004963,-0.018807,0,0.124326,0,0,0,0,0,1,0,0,0,0,0,0,0,0,0
954,'2025/06/30 16:20:58:382',45,0.342192,0.085475,-0.057885,-0.056646,-0.131262,0.261625,0,-0.36706,0.019808,-0.004264,-0.096245,0.596707,0.746802,-0.001366,0.564995,0.784677,-0.004963,-0.018807,0,0.124326,0,0,0,0,0,1,0,0,0,0,0,0,0,0,0
955,'2025/06/30 16:20:58:386',45,0.342192,0.085475,-0.057885,-0.056646,-0.131262,0.261625,0,-0.36706,0.019808,-0.004264,-0.096245,0.596707,0.746802,-0.001366,0.564995,0.784677,-0.004963,-0.018807,0,0.124326,0,0,0,0,0,1,0,0,0,0,0,0,0,0,0
956,'2025/06/30 16:20:58:391',45,0.342192,0.085475,-0.057885,-0.056646,-0.131262,0.261625,0,-0.36706,0.019808,-0.004264,-0.096245,0.596707,0.746802,-0.001366,0.564995,0.784677,-0.004963,-0.018807,0,0.124326,0,0,0,0,0,1,0,0,0,0,0,0,0,0,0
957,'2025/06/30 16:20:58:395',45,0.342192,0.085475,-0.057885,-0.056646,-0.131262,0.261625,0,-0.36706,0.019808,-0.004264,-0.096245,0.596707,0.746802,-0.001366,0.564995,0.784677,-0.004963,-0.018807,0,0.124326,0,0,0,0,0,1,0,0,0,0,0,0,0,0,0
958,'2025/06/30 16:21:45:207',46,0.221924,0.007927,-0.183928,-0.132515,-0.073678,0.251895,0,-0.246759,0.718256,0.741315,-0.057182,0.71986,0.74243,0.120304,0.687328,0.781398,0.067176,0.672746,0.855851,-0.001964,0,0,0,0,0,0,1,0,0,0,0,0,0,0,0
959,'2025/06/30 16:21:45:212',46,0.221924,0.007927,-0.183928,-0.132515,-0.073678,0.251895,0,-0.246759,0.718256,0.741315,-0.057182,0.71986,0.74243,0.120304,0.687328,0.781398,0.067176,0.672746,0.855851,-0.001964,0,0,0,0,0,0,1,0,0,0,0,0,0,0,0
960,'2025/06/30 16:21:45:217',46,0.221924,0.007927,-0.183928,-0.132515,-0.073678,0.251895,0,-0.246759,0.718256,0.741315,-0.057182,0.71986,0.74243,0.120304,0.687328,0.781398,0.067176,0.672746,0.855851,-0.001964,0,0,0,0,0,0,1,0,0,0,0,0,0,0,0
961,'2025/06/30 16:21:45:221',46,0.221924,0.007927,-0.183928,-0.132515,-0.073678,0.251895,0,-0.246759,0.718256,0.741315,-0.057182,0.71986,0.74243,0.120304,0.687328,0.781398,0.067176,0.672746,0.855851,-0.001964,0,0,0,0,0,0,1,0,0,0,0,0,0,0,0
962,'2025/06/30 16:21:45:226',46,0.221924,0.007927,-0.183928,-0.132515,-0.073678,0.251895,0,-0.246759,0.718256,0.741315,-0.057182,0.71986,0.74243,0.120304,0.687328,0.781398,0.067176,0.672746,0.855851,-0.001964,0,0,0,0,0,0,1,0,0,0,0,0,0,0,0
963,'2025/06/30 16:21:45:232',46,0.221924,0.007927,-0.183928,-0.132515,-0.073678,0.251895,0,-0.246759,0.718256,0.741315,-0.057182,0.71986,0.74243,0.120304,0.687328,0.781398,0.067176,0.672746,0.855851,-0.001964,0,0,0,0,0,0,1,0,0,0,0,0,0,0,0
964,'2025/06/30 16:21:45:237',46,0.221924,0.007927,-0.183928,-0.132515,-0.073678,0.251895,0,-0.246759,0.718256,0.741315,-0.057182,0.71986,0.74243,0.120304,0.687328,0.781398,0.067176,0.672746,0.855851,-0.001964,0,0,0,0,0,0,1,0,0,0,0,0,0,0,0
965,'2025/06/30 16:21:45:242',46,0.221924,0.007927,-0.183928,-0.132515,-0.073678,0.251895,0,-0.246759,0.718256,0.741315,-0.057182,0.71986,0.74243,0.120304,0.687328,0.781398,0.067176,0.672746,0.855851,-0.001964,0,0,0,0,0,0,1,0,0,0,0,0,0,0,0
966,'2025/06/30 16:21:45:247',46,0.221924,0.007927,-0.183928,-0.132515,-0.073678,0.251895,0,-0.246759,0.718256,0.741315,-0.057182,0.71986,0.74243,0.120304,0.687328,0.781398,0.067176,0.672746,0.855851,-0.001964,0,0,0,0,0,0,1,0,0,0,0,0,0,0,0
967,'2025/06/30 16:21:45:252',46,0.221924,0.007927,-0.183928,-0.132515,-0.073678,0.251895,0,-0.246759,0.718256,0.741315,-0.057182,0.71986,0.74243,0.120304,0.687328,0.781398,0.067176,0.672746,0.855851,-0.001964,0,0,0,0,0,0,1,0,0,0,0,0,0,0,0
968,'2025/06/30 16:21:45:256',46,0.221924,0.007927,-0.183928,-0.132515,-0.073678,0.251895,0,-0.246759,0.718256,0.741315,-0.057182,0.71986,0.74243,0.120304,0.687328,0.781398,0.067176,0.672746,0.855851,-0.001964,0,0,0,0,0,0,1,0,0,0,0,0,0,0,0
969,'2025/06/30 16:21:45:262',46,0.221924,0.007927,-0.183928,-0.132515,-0.073678,0.251895,0,-0.246759,0.718256,0.741315,-0.057182,0.71986,0.74243,0.120304,0.687328,0.781398,0.067176,0.672746,0.855851,-0.001964,0,0,0,0,0,0,1,0,0,0,0,0,0,0,0
970,'2025/06/30 16:21:45:268',46,0.221924,0.007927,-0.183928,-0.132515,-0.073678,0.251895,0,-0.246759,0.718256,0.741315,-0.057182,0.71986,0.74243,0.120304,0.687328,0.781398,0.067176,0.672746,0.855851,-0.001964,0,0,0,0,0,0,1,0,0,0,0,0,0,0,0
971,'2025/06/30 16:21:45:273',46,0.221924,0.007927,-0.183928,-0.132515,-0.073678,0.251895,0,-0.246759,0.718256,0.741315,-0.057182,0.71986,0.74243,0.120304,0.687328,0.781398,0.067176,0.672746,0.855851,-0.001964,0,0,0,0,0,0,1,0,0,0,0,0,0,0,0
972,'2025/06/30 16:21:45:279',46,0.221924,0.007927,-0.183928,-0.132515,-0.073678,0.251895,0,-0.246759,0.718256,0.741315,-0.057182,0.71986,0.74243,0.120304,0.687328,0.781398,0.067176,0.672746,0.855851,-0.001964,0,0,0,0,0,0,1,0,0,0,0,0,0,0,0
973,'2025/06/30 16:21:45:284',46,0.221924,0.007927,-0.183928,-0.132515,-0.073678,0.251895,0,-0.246759,0.718256,0.741315,-0.057182,0.71986,0.74243,0.120304,0.687328,0.781398,0.067176,0.672746,0.855851,-0.001964,0,0,0,0,0,0,1,0,0,0,0,0,0,0,0
974,'2025/06/30 16:21:45:289',46,0.221924,0.007927,-0.183928,-0.132515,-0.073678,0.251895,0,-0.246759,0.718256,0.741315,-0.057182,0.71986,0.74243,0.120304,0.687328,0.781398,0.067176,0.672746,0.855851,-0.001964,0,0,0,0,0,0,1,0,0,0,0,0,0,0,0
975,'2025/06/30 16:21:45:295',46,0.221924,0.007927,-0.183928,-0.132515,-0.073678,0.251895,0,-0.246759,0.718256,0.741315,-0.057182,0.71986,0.74243,0.120304,0.687328,0.781398,0.067176,0.672746,0.855851,-0.001964,0,0,0,0,0,0,1,0,0,0,0,0,0,0,0
976,'2025/06/30 16:21:45:301',46,0.221924,0.007927,-0.183928,-0.132515,-0.073678,0.251895,0,-0.246759,0.718256,0.741315,-0.057182,0.71986,0.74243,0.120304,0.687328,0.781398,0.067176,0.672746,0.855851,-0.001964,0,0,0,0,0,0,1,0,0,0,0,0,0,0,0
977,'2025/06/30 16:21:45:307',46,0.221924,0.007927,-0.183928,-0.132515,-0.073678,0.251895,0,-0.246759,0.718256,0.741315,-0.057182,0.71986,0.74243,0.120304,0.687328,0.781398,0.067176,0.672746,0.855851,-0.001964,0,0,0,0,0,0,1,0,0,0,0,0,0,0,0
978,'2025/06/30 16:21:45:312',46,0.221924,0.007927,-0.183928,-0.132515,-0.073678,0.251895,0,-0.246759,0.718256,0.741315,-0.057182,0.71986,0.74243,0.120304,0.687328,0.781398,0.067176,0.672746,0.855851,-0.001964,0,0,0,0,0,0,1,0,0,0,0,0,0,0,0
979,'2025/06/30 16:21:45:317',46,0.221924,0.007927,-0.183928,-0.132515,-0.073678,0.251895,0,-0.246759,0.718256,0.741315,-0.057182,0.71986,0.74243,0.120304,0.687328,0.781398,0.067176,0.672746,0.855851,-0.001964,0,0,0,0,0,0,1,0,0,0,0,0,0,0,0
980,'2025/06/30 16:21:45:322',46,0.221924,0.007927,-0.183928,-0.132515,-0.073678,0.251895,0,-0.246759,0.718256,0.741315,-0.057182,0.71986,0.74243,0.120304,0.687328,0.781398,0.067176,0.672746,0.855851,-0.001964,0,0,0,0,0,0,1,0,0,0,0,0,0,0,0
981,'2025/06/30 16:21:45:330',46,0.221924,0.007927,-0.183928,-0.132515,-0.073678,0.251895,0,-0.246759,0.718256,0.741315,-0.057182,0.71986,0.74243,0.120304,0.687328,0.781398,0.067176,0.672746,0.855851,-0.001964,0,0,0,0,0,0,1,0,0,0,0,0,0,0,0
982,'2025/06/30 16:21:45:335',46,0.221924,0.007927,-0.183928,-0.132515,-0.073678,0.251895,0,-0.246759,0.718256,0.741315,-0.057182,0.71986,0.74243,0.120304,0.687328,0.781398,0.067176,0.672746,0.855851,-0.001964,0,0,0,0,0,0,1,0,0,0,0,0,0,0,0
983,'2025/06/30 16:21:45:340',46,0.221924,0.007927,-0.183928,-0.132515,-0.073678,0.251895,0,-0.246759,0.718256,0.741315,-0.057182,0.71986,0.74243,0.120304,0.687328,0.781398,0.067176,0.672746,0.855851,-0.001964,0,0,0,0,0,0,1,0,0,0,0,0,0,0,0
984,'2025/06/30 16:21:49:731',47,0.326139,0.007927,-0.183928,-0.132515,-0.073678,0.265561,0,-0.351373,0.718256,0.741315,-0.057182,0.71986,0.74243,0.120304,0.687328,0.781398,0.067176,0.672746,0.855851,-0.001964,0,0,0,0,0,0,1,0,0,0,0,0,0,0,0
985,'2025/06/30 16:21:49:735',47,0.326139,0.007927,-0.183928,-0.132515,-0.073678,0.265561,0,-0.351373,0.718256,0.741315,-0.057182,0.71986,0.74243,0.120304,0.687328,0.781398,0.067176,0.672746,0.855851,-0.001964,0,0,0,0,0,0,1,0,0,0,0,0,0,0,0
986,'2025/06/30 16:21:49:740',47,0.326139,0.007927,-0.183928,-0.132515,-0.073678,0.265561,0,-0.351373,0.718256,0.741315,-0.057182,0.71986,0.74243,0.120304,0.687328,0.781398,0.067176,0.672746,0.855851,-0.001964,0,0,0,0,0,0,1,0,0,0,0,0,0,0,0
987,'2025/06/30 16:21:49:745',47,0.326139,0.007927,-0.183928,-0.132515,-0.073678,0.265561,0,-0.351373,0.718256,0.741315,-0.057182,0.71986,0.74243,0.120304,0.687328,0.781398,0.067176,0.672746,0.855851,-0.001964,0,0,0,0,0,0,1,0,0,0,0,0,0,0,0
988,'2025/06/30 16:21:49:750',47,0.326139,0.007927,-0.183928,-0.132515,-0.073678,0.265561,0,-0.351373,0.718256,0.741315,-0.057182,0.71986,0.74243,0.120304,0.687328,0.781398,0.067176,0.672746,0.855851,-0.001964,0,0,0,0,0,0,1,0,0,0,0,0,0,0,0
989,'2025/06/30 16:21:49:755',47,0.326139,0.007927,-0.183928,-0.132515,-0.073678,0.265561,0,-0.351373,0.718256,0.741315,-0.057182,0.71986,0.74243,0.120304,0.687328,0.781398,0.067176,0.672746,0.855851,-0.001964,0,0,0,0,0,0,1,0,0,0,0,0,0,0,0
990,'2025/06/30 16:21:49:760',47,0.326139,0.007927,-0.183928,-0.132515,-0.073678,0.265561,0,-0.351373,0.718256,0.741315,-0.057182,0.71986,0.74243,0.120304,0.687328,0.781398,0.067176,0.672746,0.855851,-0.001964,0,0,0,0,0,0,1,0,0,0,0,0,0,0,0
991,'2025/06/30 16:21:49:766',47,0.326139,0.007927,-0.183928,-0.132515,-0.073678,0.265561,0,-0.351373,0.718256,0.741315,-0.057182,0.71986,0.74243,0.120304,0.687328,0.781398,0.067176,0.672746,0.855851,-0.001964,0,0,0,0,0,0,1,0,0,0,0,0,0,0,0
992,'2025/06/30 16:21:49:770',47,0.326139,0.007927,-0.183928,-0.132515,-0.073678,0.265561,0,-0.351373,0.718256,0.741315,-0.057182,0.71986,0.74243,0.120304,0.687328,0.781398,0.067176,0.672746,0.855851,-0.001964,0,0,0,0,0,0,1,0,0,0,0,0,0,0,0
993,'2025/06/30 16:21:49:775',47,0.326139,0.007927,-0.183928,-0.132515,-0.073678,0.265561,0,-0.351373,0.718256,0.741315,-0.057182,0.71986,0.74243,0.120304,0.687328,0.781398,0.067176,0.672746,0.855851,-0.001964,0,0,0,0,0,0,1,0,0,0,0,0,0,0,0
994,'2025/06/30 16:21:49:782',47,0.326139,0.007927,-0.183928,-0.132515,-0.073678,0.265561,0,-0.351373,0.718256,0.741315,-0.057182,0.71986,0.74243,0.120304,0.687328,0.781398,0.067176,0.672746,0.855851,-0.001964,0,0,0,0,0,0,1,0,0,0,0,0,0,0,0
995,'2025/06/30 16:21:49:786',47,0.326139,0.007927,-0.183928,-0.132515,-0.073678,0.265561,0,-0.351373,0.718256,0.741315,-0.057182,0.71986,0.74243,0.120304,0.687328,0.781398,0.067176,0.672746,0.855851,-0.001964,0,0,0,0,0,0,1,0,0,0,0,0,0,0,0
996,'2025/06/30 16:21:49:792',47,0.326139,0.007927,-0.183928,-0.132515,-0.073678,0.265561,0,-0.351373,0.718256,0.741315,-0.057182,0.71986,0.74243,0.120304,0.687328,0.781398,0.067176,0.672746,0.855851,-0.001964,0,0,0,0,0,0,1,0,0,0,0,0,0,0,0
997,'2025/06/30 16:21:49:797',47,0.326139,0.007927,-0.183928,-0.132515,-0.073678,0.265561,0,-0.351373,0.718256,0.741315,-0.057182,0.71986,0.74243,0.120304,0.687328,0.781398,0.067176,0.672746,0.855851,-0.001964,0,0,0,0,0,0,1,0,0,0,0,0,0,0,0
998,'2025/06/30 16:21:49:802',47,0.326139,0.007927,-0.183928,-0.132515,-0.073678,0.265561,0,-0.351373,0.718256,0.741315,-0.057182,0.71986,0.74243,0.120304,0.687328,0.781398,0.067176,0.672746,0.855851,-0.001964,0,0,0,0,0,0,1,0,0,0,0,0,0,0,0
999,'2025/06/30 16:21:49:807',47,0.326139,0.007927,-0.183928,-0.132515,-0.073678,0.265561,0,-0.351373,0.718256,0.741315,-0.057182,0.71986,0.74243,0.120304,0.687328,0.781398,0.067176,0.672746,0.855851,-0.001964,0,0,0,0,0,0,1,0,0,0,0,0,0,0,0
1000,'2025/06/30 16:21:49:813',47,0.326139,0.007927,-0.183928,-0.132515,-0.073678,0.265561,0,-0.351373,0.718256,0.741315,-0.057182,0.71986,0.74243,0.120304,0.687328,0.781398,0.067176,0.672746,0.855851,-0.001964,0,0,0,0,0,0,1,0,0,0,0,0,0,0,0
1001,'2025/06/30 16:21:49:817',47,0.326139,0.007927,-0.183928,-0.132515,-0.073678,0.265561,0,-0.351373,0.718256,0.741315,-0.057182,0.71986,0.74243,0.120304,0.687328,0.781398,0.067176,0.672746,0.855851,-0.001964,0,0,0,0,0,0,1,0,0,0,0,0,0,0,0
1002,'2025/06/30 16:21:49:823',47,0.326139,0.007927,-0.183928,-0.132515,-0.073678,0.265561,0,-0.351373,0.718256,0.741315,-0.057182,0.71986,0.74243,0.120304,0.687328,0.781398,0.067176,0.672746,0.855851,-0.001964,0,0,0,0,0,0,1,0,0,0,0,0,0,0,0
1003,'2025/06/30 16:21:49:829',47,0.326139,0.007927,-0.183928,-0.132515,-0.073678,0.265561,0,-0.351373,0.718256,0.741315,-0.057182,0.71986,0.74243,0.120304,0.687328,0.781398,0.067176,0.672746,0.855851,-0.001964,0,0,0,0,0,0,1,0,0,0,0,0,0,0,0
1004,'2025/06/30 16:21:49:833',47,0.326139,0.007927,-0.183928,-0.132515,-0.073678,0.265561,0,-0.351373,0.718256,0.741315,-0.057182,0.71986,0.74243,0.120304,0.687328,0.781398,0.067176,0.672746,0.855851,-0.001964,0,0,0,0,0,0,1,0,0,0,0,0,0,0,0
1005,'2025/06/30 16:21:49:838',47,0.326139,0.007927,-0.183928,-0.132515,-0.073678,0.265561,0,-0.351373,0.718256,0.741315,-0.057182,0.71986,0.74243,0.120304,0.687328,0.781398,0.067176,0.672746,0.855851,-0.001964,0,0,0,0,0,0,1,0,0,0,0,0,0,0,0
1006,'2025/06/30 16:21:49:843',47,0.326139,0.007927,-0.183928,-0.132515,-0.073678,0.265561,0,-0.351373,0.718256,0.741315,-0.057182,0.71986,0.74243,0.120304,0.687328,0.781398,0.067176,0.672746,0.855851,-0.001964,0,0,0,0,0,0,1,0,0,0,0,0,0,0,0
1007,'2025/06/30 16:21:49:850',47,0.326139,0.007927,-0.183928,-0.132515,-0.073678,0.265561,0,-0.351373,0.718256,0.741315,-0.057182,0.71986,0.74243,0.120304,0.687328,0.781398,0.067176,0.672746,0.855851,-0.001964,0,0,0,0,0,0,1,0,0,0,0,0,0,0,0
1008,'2025/06/30 16:21:49:855',47,0.326139,0.007927,-0.183928,-0.132515,-0.073678,0.265561,0,-0.351373,0.718256,0.741315,-0.057182,0.71986,0.74243,0.120304,0.687328,0.781398,0.067176,0.672746,0.855851,-0.001964,0,0,0,0,0,0,1,0,0,0,0,0,0,0,0
1009,'2025/06/30 16:21:49:861',47,0.326139,0.007927,-0.183928,-0.132515,-0.073678,0.265561,0,-0.351373,0.718256,0.741315,-0.057182,0.71986,0.74243,0.120304,0.687328,0.781398,0.067176,0.672746,0.855851,-0.001964,0,0,0,0,0,0,1,0,0,0,0,0,0,0,0
1010,'2025/06/30 16:21:51:564',48,0.376496,0.007927,-0.183928,-0.132515,-0.073678,0.281289,0,-0.40251,0.718256,0.741315,-0.057182,0.71986,0.74243,0.120304,0.687328,0.781398,0.067176,0.672746,0.855851,-0.001964,0,0,0,0,0,0,1,0,0,0,0,0,0,0,0
1011,'2025/06/30 16:21:51:570',48,0.376496,0.007927,-0.183928,-0.132515,-0.073678,0.281289,0,-0.40251,0.718256,0.741315,-0.057182,0.71986,0.74243,0.120304,0.687328,0.781398,0.067176,0.672746,0.855851,-0.001964,0,0,0,0,0,0,1,0,0,0,0,0,0,0,0
1012,'2025/06/30 16:21:51:575',48,0.376496,0.007927,-0.183928,-0.132515,-0.073678,0.281289,0,-0.40251,0.718256,0.741315,-0.057182,0.71986,0.74243,0.120304,0.687328,0.781398,0.067176,0.672746,0.855851,-0.001964,0,0,0,0,0,0,1,0,0,0,0,0,0,0,0
1013,'2025/06/30 16:21:51:580',48,0.376496,0.007927,-0.183928,-0.132515,-0.073678,0.281289,0,-0.40251,0.718256,0.741315,-0.057182,0.71986,0.74243,0.120304,0.687328,0.781398,0.067176,0.672746,0.855851,-0.001964,0,0,0,0,0,0,1,0,0,0,0,0,0,0,0
1014,'2025/06/30 16:21:51:584',48,0.376496,0.007927,-0.183928,-0.132515,-0.073678,0.281289,0,-0.40251,0.718256,0.741315,-0.057182,0.71986,0.74243,0.120304,0.687328,0.781398,0.067176,0.672746,0.855851,-0.001964,0,0,0,0,0,0,1,0,0,0,0,0,0,0,0
1015,'2025/06/30 16:21:51:589',48,0.376496,0.007927,-0.183928,-0.132515,-0.073678,0.281289,0,-0.40251,0.718256,0.741315,-0.057182,0.71986,0.74243,0.120304,0.687328,0.781398,0.067176,0.672746,0.855851,-0.001964,0,0,0,0,0,0,1,0,0,0,0,0,0,0,0
1016,'2025/06/30 16:21:51:594',48,0.376496,0.007927,-0.183928,-0.132515,-0.073678,0.281289,0,-0.40251,0.718256,0.741315,-0.057182,0.71986,0.74243,0.120304,0.687328,0.781398,0.067176,0.672746,0.855851,-0.001964,0,0,0,0,0,0,1,0,0,0,0,0,0,0,0
1017,'2025/06/30 16:21:51:600',48,0.376496,0.007927,-0.183928,-0.132515,-0.073678,0.281289,0,-0.40251,0.718256,0.741315,-0.057182,0.71986,0.74243,0.120304,0.687328,0.781398,0.067176,0.672746,0.855851,-0.001964,0,0,0,0,0,0,1,0,0,0,0,0,0,0,0
1018,'2025/06/30 16:21:51:604',48,0.376496,0.007927,-0.183928,-0.132515,-0.073678,0.281289,0,-0.40251,0.718256,0.741315,-0.057182,0.71986,0.74243,0.120304,0.687328,0.781398,0.067176,0.672746,0.855851,-0.001964,0,0,0,0,0,0,1,0,0,0,0,0,0,0,0
1019,'2025/06/30 16:21:51:609',48,0.376496,0.007927,-0.183928,-0.132515,-0.073678,0.281289,0,-0.40251,0.718256,0.741315,-0.057182,0.71986,0.74243,0.120304,0.687328,0.781398,0.067176,0.672746,0.855851,-0.001964,0,0,0,0,0,0,1,0,0,0,0,0,0,0,0
1020,'2025/06/30 16:21:51:615',48,0.376496,0.007927,-0.183928,-0.132515,-0.073678,0.281289,0,-0.40251,0.718256,0.741315,-0.057182,0.71986,0.74243,0.120304,0.687328,0.781398,0.067176,0.672746,0.855851,-0.001964,0,0,0,0,0,0,1,0,0,0,0,0,0,0,0
1021,'2025/06/30 16:21:51:620',48,0.376496,0.007927,-0.183928,-0.132515,-0.073678,0.281289,0,-0.40251,0.718256,0.741315,-0.057182,0.71986,0.74243,0.120304,0.687328,0.781398,0.067176,0.672746,0.855851,-0.001964,0,0,0,0,0,0,1,0,0,0,0,0,0,0,0
1022,'2025/06/30 16:21:51:625',48,0.376496,0.007927,-0.183928,-0.132515,-0.073678,0.281289,0,-0.40251,0.718256,0.741315,-0.057182,0.71986,0.74243,0.120304,0.687328,0.781398,0.067176,0.672746,0.855851,-0.001964,0,0,0,0,0,0,1,0,0,0,0,0,0,0,0
1023,'2025/06/30 16:21:51:631',48,0.376496,0.007927,-0.183928,-0.132515,-0.073678,0.281289,0,-0.40251,0.718256,0.741315,-0.057182,0.71986,0.74243,0.120304,0.687328,0.781398,0.067176,0.672746,0.855851,-0.001964,0,0,0,0,0,0,1,0,0,0,0,0,0,0,0
1024,'2025/06/30 16:21:51:636',48,0.376496,0.007927,-0.183928,-0.132515,-0.073678,0.281289,0,-0.40251,0.718256,0.741315,-0.057182,0.71986,0.74243,0.120304,0.687328,0.781398,0.067176,0.672746,0.855851,-0.001964,0,0,0,0,0,0,1,0,0,0,0,0,0,0,0
1025,'2025/06/30 16:21:51:641',48,0.376496,0.007927,-0.183928,-0.132515,-0.073678,0.281289,0,-0.40251,0.718256,0.741315,-0.057182,0.71986,0.74243,0.120304,0.687328,0.781398,0.067176,0.672746,0.855851,-0.001964,0,0,0,0,0,0,1,0,0,0,0,0,0,0,0
1026,'2025/06/30 16:21:51:646',48,0.376496,0.007927,-0.183928,-0.132515,-0.073678,0.281289,0,-0.40251,0.718256,0.741315,-0.057182,0.71986,0.74243,0.120304,0.687328,0.781398,0.067176,0.672746,0.855851,-0.001964,0,0,0,0,0,0,1,0,0,0,0,0,0,0,0
1027,'2025/06/30 16:21:51:651',48,0.376496,0.007927,-0.183928,-0.132515,-0.073678,0.281289,0,-0.40251,0.718256,0.741315,-0.057182,0.71986,0.74243,0.120304,0.687328,0.781398,0.067176,0.672746,0.855851,-0.001964,0,0,0,0,0,0,1,0,0,0,0,0,0,0,0
1028,'2025/06/30 16:21:51:657',48,0.376496,0.007927,-0.183928,-0.132515,-0.073678,0.281289,0,-0.40251,0.718256,0.741315,-0.057182,0.71986,0.74243,0.120304,0.687328,0.781398,0.067176,0.672746,0.855851,-0.001964,0,0,0,0,0,0,1,0,0,0,0,0,0,0,0
1029,'2025/06/30 16:21:51:662',48,0.376496,0.007927,-0.183928,-0.132515,-0.073678,0.281289,0,-0.40251,0.718256,0.741315,-0.057182,0.71986,0.74243,0.120304,0.687328,0.781398,0.067176,0.672746,0.855851,-0.001964,0,0,0,0,0,0,1,0,0,0,0,0,0,0,0
1030,'2025/06/30 16:21:51:668',48,0.376496,0.007927,-0.183928,-0.132515,-0.073678,0.281289,0,-0.40251,0.718256,0.741315,-0.057182,0.71986,0.74243,0.120304,0.687328,0.781398,0.067176,0.672746,0.855851,-0.001964,0,0,0,0,0,0,1,0,0,0,0,0,0,0,0
1031,'2025/06/30 16:21:51:673',48,0.376496,0.007927,-0.183928,-0.132515,-0.073678,0.281289,0,-0.40251,0.718256,0.741315,-0.057182,0.71986,0.74243,0.120304,0.687328,0.781398,0.067176,0.672746,0.855851,-0.001964,0,0,0,0,0,0,1,0,0,0,0,0,0,0,0
1032,'2025/06/30 16:21:51:677',48,0.376496,0.007927,-0.183928,-0.132515,-0.073678,0.281289,0,-0.40251,0.718256,0.741315,-0.057182,0.71986,0.74243,0.120304,0.687328,0.781398,0.067176,0.672746,0.855851,-0.001964,0,0,0,0,0,0,1,0,0,0,0,0,0,0,0
1033,'2025/06/30 16:21:51:682',48,0.376496,0.007927,-0.183928,-0.132515,-0.073678,0.281289,0,-0.40251,0.718256,0.741315,-0.057182,0.71986,0.74243,0.120304,0.687328,0.781398,0.067176,0.672746,0.855851,-0.001964,0,0,0,0,0,0,1,0,0,0,0,0,0,0,0
1034,'2025/06/30 16:21:51:687',48,0.376496,0.007927,-0.183928,-0.132515,-0.073678,0.281289,0,-0.40251,0.718256,0.741315,-0.057182,0.71986,0.74243,0.120304,0.687328,0.781398,0.067176,0.672746,0.855851,-0.001964,0,0,0,0,0,0,1,0,0,0,0,0,0,0,0
1035,'2025/06/30 16:21:51:691',48,0.376496,0.007927,-0.183928,-0.132515,-0.073678,0.281289,0,-0.40251,0.718256,0.741315,-0.057182,0.71986,0.74243,0.120304,0.687328,0.781398,0.067176,0.672746,0.855851,-0.001964,0,0,0,0,0,0,1,0,0,0,0,0,0,0,0
1036,'2025/06/30 16:21:51:696',48,0.376496,0.007927,-0.183928,-0.132515,-0.073678,0.281289,0,-0.40251,0.718256,0.741315,-0.057182,0.71986,0.74243,0.120304,0.687328,0.781398,0.067176,0.672746,0.855851,-0.001964,0,0,0,0,0,0,1,0,0,0,0,0,0,0,0
1037,'2025/06/30 16:21:51:702',48,0.376496,0.007927,-0.183928,-0.132515,-0.073678,0.281289,0,-0.40251,0.718256,0.741315,-0.057182,0.71986,0.74243,0.120304,0.687328,0.781398,0.067176,0.672746,0.855851,-0.001964,0,0,0,0,0,0,1,0,0,0,0,0,0,0,0
1038,'2025/06/30 16:21:51:708',48,0.376496,0.007927,-0.183928,-0.132515,-0.073678,0.281289,0,-0.40251,0.718256,0.741315,-0.057182,0.71986,0.74243,0.120304,0.687328,0.781398,0.067176,0.672746,0.855851,-0.001964,0,0,0,0,0,0,1,0,0,0,0,0,0,0,0
1039,'2025/06/30 16:21:51:713',48,0.376496,0.007927,-0.183928,-0.132515,-0.073678,0.281289,0,-0.40251,0.718256,0.741315,-0.057182,0.71986,0.74243,0.120304,0.687328,0.781398,0.067176,0.672746,0.855851,-0.001964,0,0,0,0,0,0,1,0,0,0,0,0,0,0,0
1040,'2025/06/30 16:21:51:718',48,0.376496,0.007927,-0.183928,-0.132515,-0.073678,0.281289,0,-0.40251,0.718256,0.741315,-0.057182,0.71986,0.74243,0.120304,0.687328,0.781398,0.067176,0.672746,0.855851,-0.001964,0,0,0,0,0,0,1,0,0,0,0,0,0,0,0
1041,'2025/06/30 16:22:14:932',49,0.376496,-0.030526,-0.063643,-0.061908,-0.064379,0.281289,0,-0.40251,0.681809,0.739884,-0.015353,0.652504,0.736802,0.001168,0.612505,0.767248,-0.00192,0.660902,0.806546,-0.008922,0,0,0,0,0,0,1,0,0,0,0,0,0,0,0
1042,'2025/06/30 16:22:14:938',49,0.376496,-0.030526,-0.063643,-0.061908,-0.064379,0.281289,0,-0.40251,0.681809,0.739884,-0.015353,0.652504,0.736802,0.001168,0.612505,0.767248,-0.00192,0.660902,0.806546,-0.008922,0,0,0,0,0,0,1,0,0,0,0,0,0,0,0
1043,'2025/06/30 16:22:14:942',49,0.376496,-0.030526,-0.063643,-0.061908,-0.064379,0.281289,0,-0.40251,0.681809,0.739884,-0.015353,0.652504,0.736802,0.001168,0.612505,0.767248,-0.00192,0.660902,0.806546,-0.008922,0,0,0,0,0,0,1,0,0,0,0,0,0,0,0
1044,'2025/06/30 16:22:14:947',49,0.376496,-0.030526,-0.063643,-0.061908,-0.064379,0.281289,0,-0.40251,0.681809,0.739884,-0.015353,0.652504,0.736802,0.001168,0.612505,0.767248,-0.00192,0.660902,0.806546,-0.008922,0,0,0,0,0,0,1,0,0,0,0,0,0,0,0
1045,'2025/06/30 16:22:14:952',49,0.376496,-0.030526,-0.063643,-0.061908,-0.064379,0.281289,0,-0.40251,0.681809,0.739884,-0.015353,0.652504,0.736802,0.001168,0.612505,0.767248,-0.00192,0.660902,0.806546,-0.008922,0,0,0,0,0,0,1,0,0,0,0,0,0,0,0
1046,'2025/06/30 16:22:14:957',49,0.376496,-0.030526,-0.063643,-0.061908,-0.064379,0.281289,0,-0.40251,0.681809,0.739884,-0.015353,0.652504,0.736802,0.001168,0.612505,0.767248,-0.00192,0.660902,0.806546,-0.008922,0,0,0,0,0,0,1,0,0,0,0,0,0,0,0
1047,'2025/06/30 16:22:14:962',49,0.376496,-0.030526,-0.063643,-0.061908,-0.064379,0.281289,0,-0.40251,0.681809,0.739884,-0.015353,0.652504,0.736802,0.001168,0.612505,0.767248,-0.00192,0.660902,0.806546,-0.008922,0,0,0,0,0,0,1,0,0,0,0,0,0,0,0
1048,'2025/06/30 16:22:14:967',49,0.376496,-0.030526,-0.063643,-0.061908,-0.064379,0.281289,0,-0.40251,0.681809,0.739884,-0.015353,0.652504,0.736802,0.001168,0.612505,0.767248,-0.00192,0.660902,0.806546,-0.008922,0,0,0,0,0,0,1,0,0,0,0,0,0,0,0
1049,'2025/06/30 16:22:14:972',49,0.376496,-0.030526,-0.063643,-0.061908,-0.064379,0.281289,0,-0.40251,0.681809,0.739884,-0.015353,0.652504,0.736802,0.001168,0.612505,0.767248,-0.00192,0.660902,0.806546,-0.008922,0,0,0,0,0,0,1,0,0,0,0,0,0,0,0
1050,'2025/06/30 16:22:14:975',49,0.376496,-0.030526,-0.063643,-0.061908,-0.064379,0.281289,0,-0.40251,0.681809,0.739884,-0.015353,0.652504,0.736802,0.001168,0.612505,0.767248,-0.00192,0.660902,0.806546,-0.008922,0,0,0,0,0,0,1,0,0,0,0,0,0,0,0
1051,'2025/06/30 16:22:14:981',49,0.376496,-0.030526,-0.063643,-0.061908,-0.064379,0.281289,0,-0.40251,0.681809,0.739884,-0.015353,0.652504,0.736802,0.001168,0.612505,0.767248,-0.00192,0.660902,0.806546,-0.008922,0,0,0,0,0,0,1,0,0,0,0,0,0,0,0
1052,'2025/06/30 16:22:14:986',49,0.376496,-0.030526,-0.063643,-0.061908,-0.064379,0.281289,0,-0.40251,0.681809,0.739884,-0.015353,0.652504,0.736802,0.001168,0.612505,0.767248,-0.00192,0.660902,0.806546,-0.008922,0,0,0,0,0,0,1,0,0,0,0,0,0,0,0
1053,'2025/06/30 16:22:14:992',49,0.376496,-0.030526,-0.063643,-0.061908,-0.064379,0.281289,0,-0.40251,0.681809,0.739884,-0.015353,0.652504,0.736802,0.001168,0.612505,0.767248,-0.00192,0.660902,0.806546,-0.008922,0,0,0,0,0,0,1,0,0,0,0,0,0,0,0
1054,'2025/06/30 16:22:14:998',49,0.376496,-0.030526,-0.063643,-0.061908,-0.064379,0.281289,0,-0.40251,0.681809,0.739884,-0.015353,0.652504,0.736802,0.001168,0.612505,0.767248,-0.00192,0.660902,0.806546,-0.008922,0,0,0,0,0,0,1,0,0,0,0,0,0,0,0
1055,'2025/06/30 16:22:15:004',49,0.376496,-0.030526,-0.063643,-0.061908,-0.064379,0.281289,0,-0.40251,0.681809,0.739884,-0.015353,0.652504,0.736802,0.001168,0.612505,0.767248,-0.00192,0.660902,0.806546,-0.008922,0,0,0,0,0,0,1,0,0,0,0,0,0,0,0
1056,'2025/06/30 16:22:15:010',49,0.376496,-0.030526,-0.063643,-0.061908,-0.064379,0.281289,0,-0.40251,0.681809,0.739884,-0.015353,0.652504,0.736802,0.001168,0.612505,0.767248,-0.00192,0.660902,0.806546,-0.008922,0,0,0,0,0,0,1,0,0,0,0,0,0,0,0
1057,'2025/06/30 16:22:15:016',49,0.376496,-0.030526,-0.063643,-0.061908,-0.064379,0.281289,0,-0.40251,0.681809,0.739884,-0.015353,0.652504,0.736802,0.001168,0.612505,0.767248,-0.00192,0.660902,0.806546,-0.008922,0,0,0,0,0,0,1,0,0,0,0,0,0,0,0
1058,'2025/06/30 16:22:15:021',49,0.376496,-0.030526,-0.063643,-0.061908,-0.064379,0.281289,0,-0.40251,0.681809,0.739884,-0.015353,0.652504,0.736802,0.001168,0.612505,0.767248,-0.00192,0.660902,0.806546,-0.008922,0,0,0,0,0,0,1,0,0,0,0,0,0,0,0
1059,'2025/06/30 16:22:15:026',49,0.376496,-0.030526,-0.063643,-0.061908,-0.064379,0.281289,0,-0.40251,0.681809,0.739884,-0.015353,0.652504,0.736802,0.001168,0.612505,0.767248,-0.00192,0.660902,0.806546,-0.008922,0,0,0,0,0,0,1,0,0,0,0,0,0,0,0
1060,'2025/06/30 16:22:15:031',49,0.376496,-0.030526,-0.063643,-0.061908,-0.064379,0.281289,0,-0.40251,0.681809,0.739884,-0.015353,0.652504,0.736802,0.001168,0.612505,0.767248,-0.00192,0.660902,0.806546,-0.008922,0,0,0,0,0,0,1,0,0,0,0,0,0,0,0
1061,'2025/06/30 16:22:15:036',49,0.376496,-0.030526,-0.063643,-0.061908,-0.064379,0.281289,0,-0.40251,0.681809,0.739884,-0.015353,0.652504,0.736802,0.001168,0.612505,0.767248,-0.00192,0.660902,0.806546,-0.008922,0,0,0,0,0,0,1,0,0,0,0,0,0,0,0
1062,'2025/06/30 16:22:15:042',49,0.376496,-0.030526,-0.063643,-0.061908,-0.064379,0.281289,0,-0.40251,0.681809,0.739884,-0.015353,0.652504,0.736802,0.001168,0.612505,0.767248,-0.00192,0.660902,0.806546,-0.008922,0,0,0,0,0,0,1,0,0,0,0,0,0,0,0
1063,'2025/06/30 16:22:15:047',49,0.376496,-0.030526,-0.063643,-0.061908,-0.064379,0.281289,0,-0.40251,0.681809,0.739884,-0.015353,0.652504,0.736802,0.001168,0.612505,0.767248,-0.00192,0.660902,0.806546,-0.008922,0,0,0,0,0,0,1,0,0,0,0,0,0,0,0
1064,'2025/06/30 16:22:15:054',49,0.376496,-0.030526,-0.063643,-0.061908,-0.064379,0.281289,0,-0.40251,0.681809,0.739884,-0.015353,0.652504,0.736802,0.001168,0.612505,0.767248,-0.00192,0.660902,0.806546,-0.008922,0,0,0,0,0,0,1,0,0,0,0,0,0,0,0
1065,'2025/06/30 16:22:15:060',49,0.376496,-0.030526,-0.063643,-0.061908,-0.064379,0.281289,0,-0.40251,0.681809,0.739884,-0.015353,0.652504,0.736802,0.001168,0.612505,0.767248,-0.00192,0.660902,0.806546,-0.008922,0,0,0,0,0,0,1,0,0,0,0,0,0,0,0
1066,'2025/06/30 16:22:15:066',49,0.376496,-0.030526,-0.063643,-0.061908,-0.064379,0.281289,0,-0.40251,0.681809,0.739884,-0.015353,0.652504,0.736802,0.001168,0.612505,0.767248,-0.00192,0.660902,0.806546,-0.008922,0,0,0,0,0,0,1,0,0,0,0,0,0,0,0
1067,'2025/06/30 16:22:15:071',49,0.376496,-0.030526,-0.063643,-0.061908,-0.064379,0.281289,0,-0.40251,0.681809,0.739884,-0.015353,0.652504,0.736802,0.001168,0.612505,0.767248,-0.00192,0.660902,0.806546,-0.008922,0,0,0,0,0,0,1,0,0,0,0,0,0,0,0
1068,'2025/06/30 16:22:19:334',50,0.330266,-0.030526,-0.063643,-0.061908,-0.064379,0.267194,0,-0.355589,0.681809,0.739884,-0.015353,0.652504,0.736802,0.001168,0.612505,0.767248,-0.00192,0.660902,0.806546,-0.008922,0,0,0,0,0,0,1,0,0,0,0,0,0,0,0
1069,'2025/06/30 16:22:19:339',50,0.330266,-0.030526,-0.063643,-0.061908,-0.064379,0.267194,0,-0.355589,0.681809,0.739884,-0.015353,0.652504,0.736802,0.001168,0.612505,0.767248,-0.00192,0.660902,0.806546,-0.008922,0,0,0,0,0,0,1,0,0,0,0,0,0,0,0
1070,'2025/06/30 16:22:19:344',50,0.330266,-0.030526,-0.063643,-0.061908,-0.064379,0.267194,0,-0.355589,0.681809,0.739884,-0.015353,0.652504,0.736802,0.001168,0.612505,0.767248,-0.00192,0.660902,0.806546,-0.008922,0,0,0,0,0,0,1,0,0,0,0,0,0,0,0
1071,'2025/06/30 16:22:19:351',50,0.330266,-0.030526,-0.063643,-0.061908,-0.064379,0.267194,0,-0.355589,0.681809,0.739884,-0.015353,0.652504,0.736802,0.001168,0.612505,0.767248,-0.00192,0.660902,0.806546,-0.008922,0,0,0,0,0,0,1,0,0,0,0,0,0,0,0
1072,'2025/06/30 16:22:19:355',50,0.330266,-0.030526,-0.063643,-0.061908,-0.064379,0.267194,0,-0.355589,0.681809,0.739884,-0.015353,0.652504,0.736802,0.001168,0.612505,0.767248,-0.00192,0.660902,0.806546,-0.008922,0,0,0,0,0,0,1,0,0,0,0,0,0,0,0
1073,'2025/06/30 16:22:19:360',50,0.330266,-0.030526,-0.063643,-0.061908,-0.064379,0.267194,0,-0.355589,0.681809,0.739884,-0.015353,0.652504,0.736802,0.001168,0.612505,0.767248,-0.00192,0.660902,0.806546,-0.008922,0,0,0,0,0,0,1,0,0,0,0,0,0,0,0
1074,'2025/06/30 16:22:19:364',50,0.330266,-0.030526,-0.063643,-0.061908,-0.064379,0.267194,0,-0.355589,0.681809,0.739884,-0.015353,0.652504,0.736802,0.001168,0.612505,0.767248,-0.00192,0.660902,0.806546,-0.008922,0,0,0,0,0,0,1,0,0,0,0,0,0,0,0
1075,'2025/06/30 16:22:19:370',50,0.330266,-0.030526,-0.063643,-0.061908,-0.064379,0.267194,0,-0.355589,0.681809,0.739884,-0.015353,0.652504,0.736802,0.001168,0.612505,0.767248,-0.00192,0.660902,0.806546,-0.008922,0,0,0,0,0,0,1,0,0,0,0,0,0,0,0
1076,'2025/06/30 16:22:19:376',50,0.330266,-0.030526,-0.063643,-0.061908,-0.064379,0.267194,0,-0.355589,0.681809,0.739884,-0.015353,0.652504,0.736802,0.001168,0.612505,0.767248,-0.00192,0.660902,0.806546,-0.008922,0,0,0,0,0,0,1,0,0,0,0,0,0,0,0
1077,'2025/06/30 16:22:19:382',50,0.330266,-0.030526,-0.063643,-0.061908,-0.064379,0.267194,0,-0.355589,0.681809,0.739884,-0.015353,0.652504,0.736802,0.001168,0.612505,0.767248,-0.00192,0.660902,0.806546,-0.008922,0,0,0,0,0,0,1,0,0,0,0,0,0,0,0
1078,'2025/06/30 16:22:19:387',50,0.330266,-0.030526,-0.063643,-0.061908,-0.064379,0.267194,0,-0.355589,0.681809,0.739884,-0.015353,0.652504,0.736802,0.001168,0.612505,0.767248,-0.00192,0.660902,0.806546,-0.008922,0,0,0,0,0,0,1,0,0,0,0,0,0,0,0
1079,'2025/06/30 16:22:19:393',50,0.330266,-0.030526,-0.063643,-0.061908,-0.064379,0.267194,0,-0.355589,0.681809,0.739884,-0.015353,0.652504,0.736802,0.001168,0.612505,0.767248,-0.00192,0.660902,0.806546,-0.008922,0,0,0,0,0,0,1,0,0,0,0,0,0,0,0
1080,'2025/06/30 16:22:19:398',50,0.330266,-0.030526,-0.063643,-0.061908,-0.064379,0.267194,0,-0.355589,0.681809,0.739884,-0.015353,0.652504,0.736802,0.001168,0.612505,0.767248,-0.00192,0.660902,0.806546,-0.008922,0,0,0,0,0,0,1,0,0,0,0,0,0,0,0
1081,'2025/06/30 16:22:19:403',50,0.330266,-0.030526,-0.063643,-0.061908,-0.064379,0.267194,0,-0.355589,0.681809,0.739884,-0.015353,0.652504,0.736802,0.001168,0.612505,0.767248,-0.00192,0.660902,0.806546,-0.008922,0,0,0,0,0,0,1,0,0,0,0,0,0,0,0
1082,'2025/06/30 16:22:19:410',50,0.330266,-0.030526,-0.063643,-0.061908,-0.064379,0.267194,0,-0.355589,0.681809,0.739884,-0.015353,0.652504,0.736802,0.001168,0.612505,0.767248,-0.00192,0.660902,0.806546,-0.008922,0,0,0,0,0,0,1,0,0,0,0,0,0,0,0
1083,'2025/06/30 16:22:19:415',50,0.330266,-0.030526,-0.063643,-0.061908,-0.064379,0.267194,0,-0.355589,0.681809,0.739884,-0.015353,0.652504,0.736802,0.001168,0.612505,0.767248,-0.00192,0.660902,0.806546,-0.008922,0,0,0,0,0,0,1,0,0,0,0,0,0,0,0
1084,'2025/06/30 16:22:19:421',50,0.330266,-0.030526,-0.063643,-0.061908,-0.064379,0.267194,0,-0.355589,0.681809,0.739884,-0.015353,0.652504,0.736802,0.001168,0.612505,0.767248,-0.00192,0.660902,0.806546,-0.008922,0,0,0,0,0,0,1,0,0,0,0,0,0,0,0
1085,'2025/06/30 16:22:19:427',50,0.330266,-0.030526,-0.063643,-0.061908,-0.064379,0.267194,0,-0.355589,0.681809,0.739884,-0.015353,0.652504,0.736802,0.001168,0.612505,0.767248,-0.00192,0.660902,0.806546,-0.008922,0,0,0,0,0,0,1,0,0,0,0,0,0,0,0
1086,'2025/06/30 16:22:19:432',50,0.330266,-0.030526,-0.063643,-0.061908,-0.064379,0.267194,0,-0.355589,0.681809,0.739884,-0.015353,0.652504,0.736802,0.001168,0.612505,0.767248,-0.00192,0.660902,0.806546,-0.008922,0,0,0,0,0,0,1,0,0,0,0,0,0,0,0
1087,'2025/06/30 16:22:19:438',50,0.330266,-0.030526,-0.063643,-0.061908,-0.064379,0.267194,0,-0.355589,0.681809,0.739884,-0.015353,0.652504,0.736802,0.001168,0.612505,0.767248,-0.00192,0.660902,0.806546,-0.008922,0,0,0,0,0,0,1,0,0,0,0,0,0,0,0
1088,'2025/06/30 16:22:19:443',50,0.330266,-0.030526,-0.063643,-0.061908,-0.064379,0.267194,0,-0.355589,0.681809,0.739884,-0.015353,0.652504,0.736802,0.001168,0.612505,0.767248,-0.00192,0.660902,0.806546,-0.008922,0,0,0,0,0,0,1,0,0,0,0,0,0,0,0
1089,'2025/06/30 16:22:19:449',50,0.330266,-0.030526,-0.063643,-0.061908,-0.064379,0.267194,0,-0.355589,0.681809,0.739884,-0.015353,0.652504,0.736802,0.001168,0.612505,0.767248,-0.00192,0.660902,0.806546,-0.008922,0,0,0,0,0,0,1,0,0,0,0,0,0,0,0
1090,'2025/06/30 16:22:19:454',50,0.330266,-0.030526,-0.063643,-0.061908,-0.064379,0.267194,0,-0.355589,0.681809,0.739884,-0.015353,0.652504,0.736802,0.001168,0.612505,0.767248,-0.00192,0.660902,0.806546,-0.008922,0,0,0,0,0,0,1,0,0,0,0,0,0,0,0
1091,'2025/06/30 16:22:19:459',50,0.330266,-0.030526,-0.063643,-0.061908,-0.064379,0.267194,0,-0.355589,0.681809,0.739884,-0.015353,0.652504,0.736802,0.001168,0.612505,0.767248,-0.00192,0.660902,0.806546,-0.008922,0,0,0,0,0,0,1,0,0,0,0,0,0,0,0
1092,'2025/06/30 16:22:19:464',50,0.330266,-0.030526,-0.063643,-0.061908,-0.064379,0.267194,0,-0.355589,0.681809,0.739884,-0.015353,0.652504,0.736802,0.001168,0.612505,0.767248,-0.00192,0.660902,0.806546,-0.008922,0,0,0,0,0,0,1,0,0,0,0,0,0,0,0
1093,'2025/06/30 16:22:19:470',50,0.330266,-0.030526,-0.063643,-0.061908,-0.064379,0.267194,0,-0.355589,0.681809,0.739884,-0.015353,0.652504,0.736802,0.001168,0.612505,0.767248,-0.00192,0.660902,0.806546,-0.008922,0,0,0,0,0,0,1,0,0,0,0,0,0,0,0
1094,'2025/06/30 16:22:19:475',50,0.330266,-0.030526,-0.063643,-0.061908,-0.064379,0.267194,0,-0.355589,0.681809,0.739884,-0.015353,0.652504,0.736802,0.001168,0.612505,0.767248,-0.00192,0.660902,0.806546,-0.008922,0,0,0,0,0,0,1,0,0,0,0,0,0,0,0
1095,'2025/06/30 16:22:19:481',50,0.330266,-0.030526,-0.063643,-0.061908,-0.064379,0.267194,0,-0.355589,0.681809,0.739884,-0.015353,0.652504,0.736802,0.001168,0.612505,0.767248,-0.00192,0.660902,0.806546,-0.008922,0,0,0,0,0,0,1,0,0,0,0,0,0,0,0
1096,'2025/06/30 16:23:54:608',51,0.330266,-0.030526,-0.063643,-0.061908,-0.064379,0.267194,0,-0.355589,0.681809,0.739884,-0.015353,0.652504,0.736802,0.001168,0.612505,0.767248,-0.00192,0.660902,0.806546,-0.008922,0,0,0,0,0,0,1,0,0,0,0,0,0,0,0
1097,'2025/06/30 16:23:54:613',51,0.330266,-0.030526,-0.063643,-0.061908,-0.064379,0.267194,0,-0.355589,0.681809,0.739884,-0.015353,0.652504,0.736802,0.001168,0.612505,0.767248,-0.00192,0.660902,0.806546,-0.008922,0,0,0,0,0,0,1,0,0,0,0,0,0,0,0
1098,'2025/06/30 16:23:54:618',51,0.330266,-0.030526,-0.063643,-0.061908,-0.064379,0.267194,0,-0.355589,0.681809,0.739884,-0.015353,0.652504,0.736802,0.001168,0.612505,0.767248,-0.00192,0.660902,0.806546,-0.008922,0,0,0,0,0,0,1,0,0,0,0,0,0,0,0
1099,'2025/06/30 16:23:54:622',51,0.330266,-0.030526,-0.063643,-0.061908,-0.064379,0.267194,0,-0.355589,0.681809,0.739884,-0.015353,0.652504,0.736802,0.001168,0.612505,0.767248,-0.00192,0.660902,0.806546,-0.008922,0,0,0,0,0,0,1,0,0,0,0,0,0,0,0
1100,'2025/06/30 16:23:54:629',51,0.330266,-0.030526,-0.063643,-0.061908,-0.064379,0.267194,0,-0.355589,0.681809,0.739884,-0.015353,0.652504,0.736802,0.001168,0.612505,0.767248,-0.00192,0.660902,0.806546,-0.008922,0,0,0,0,0,0,1,0,0,0,0,0,0,0,0
1101,'2025/06/30 16:23:54:634',51,0.330266,-0.030526,-0.063643,-0.061908,-0.064379,0.267194,0,-0.355589,0.681809,0.739884,-0.015353,0.652504,0.736802,0.001168,0.612505,0.767248,-0.00192,0.660902,0.806546,-0.008922,0,0,0,0,0,0,1,0,0,0,0,0,0,0,0
1102,'2025/06/30 16:23:54:639',51,0.330266,-0.030526,-0.063643,-0.061908,-0.064379,0.267194,0,-0.355589,0.681809,0.739884,-0.015353,0.652504,0.736802,0.001168,0.612505,0.767248,-0.00192,0.660902,0.806546,-0.008922,0,0,0,0,0,0,1,0,0,0,0,0,0,0,0
1103,'2025/06/30 16:23:54:644',51,0.330266,-0.030526,-0.063643,-0.061908,-0.064379,0.267194,0,-0.355589,0.681809,0.739884,-0.015353,0.652504,0.736802,0.001168,0.612505,0.767248,-0.00192,0.660902,0.806546,-0.008922,0,0,0,0,0,0,1,0,0,0,0,0,0,0,0
1104,'2025/06/30 16:23:54:648',51,0.330266,-0.030526,-0.063643,-0.061908,-0.064379,0.267194,0,-0.355589,0.681809,0.739884,-0.015353,0.652504,0.736802,0.001168,0.612505,0.767248,-0.00192,0.660902,0.806546,-0.008922,0,0,0,0,0,0,1,0,0,0,0,0,0,0,0
1105,'2025/06/30 16:23:54:653',51,0.330266,-0.030526,-0.063643,-0.061908,-0.064379,0.267194,0,-0.355589,0.681809,0.739884,-0.015353,0.652504,0.736802,0.001168,0.612505,0.767248,-0.00192,0.660902,0.806546,-0.008922,0,0,0,0,0,0,1,0,0,0,0,0,0,0,0
1106,'2025/06/30 16:23:54:659',51,0.330266,-0.030526,-0.063643,-0.061908,-0.064379,0.267194,0,-0.355589,0.681809,0.739884,-0.015353,0.652504,0.736802,0.001168,0.612505,0.767248,-0.00192,0.660902,0.806546,-0.008922,0,0,0,0,0,0,1,0,0,0,0,0,0,0,0
1107,'2025/06/30 16:23:54:662',51,0.330266,-0.030526,-0.063643,-0.061908,-0.064379,0.267194,0,-0.355589,0.681809,0.739884,-0.015353,0.652504,0.736802,0.001168,0.612505,0.767248,-0.00192,0.660902,0.806546,-0.008922,0,0,0,0,0,0,1,0,0,0,0,0,0,0,0
1108,'2025/06/30 16:23:54:667',51,0.330266,-0.030526,-0.063643,-0.061908,-0.064379,0.267194,0,-0.355589,0.681809,0.739884,-0.015353,0.652504,0.736802,0.001168,0.612505,0.767248,-0.00192,0.660902,0.806546,-0.008922,0,0,0,0,0,0,1,0,0,0,0,0,0,0,0
1109,'2025/06/30 16:23:54:673',51,0.330266,-0.030526,-0.063643,-0.061908,-0.064379,0.267194,0,-0.355589,0.681809,0.739884,-0.015353,0.652504,0.736802,0.001168,0.612505,0.767248,-0.00192,0.660902,0.806546,-0.008922,0,0,0,0,0,0,1,0,0,0,0,0,0,0,0
1110,'2025/06/30 16:23:54:677',51,0.330266,-0.030526,-0.063643,-0.061908,-0.064379,0.267194,0,-0.355589,0.681809,0.739884,-0.015353,0.652504,0.736802,0.001168,0.612505,0.767248,-0.00192,0.660902,0.806546,-0.008922,0,0,0,0,0,0,1,0,0,0,0,0,0,0,0
1111,'2025/06/30 16:23:54:683',51,0.330266,-0.030526,-0.063643,-0.061908,-0.064379,0.267194,0,-0.355589,0.681809,0.739884,-0.015353,0.652504,0.736802,0.001168,0.612505,0.767248,-0.00192,0.660902,0.806546,-0.008922,0,0,0,0,0,0,1,0,0,0,0,0,0,0,0
1112,'2025/06/30 16:23:54:691',51,0.330266,-0.030526,-0.063643,-0.061908,-0.064379,0.267194,0,-0.355589,0.681809,0.739884,-0.015353,0.652504,0.736802,0.001168,0.612505,0.767248,-0.00192,0.660902,0.806546,-0.008922,0,0,0,0,0,0,1,0,0,0,0,0,0,0,0
1113,'2025/06/30 16:23:54:696',51,0.330266,-0.030526,-0.063643,-0.061908,-0.064379,0.267194,0,-0.355589,0.681809,0.739884,-0.015353,0.652504,0.736802,0.001168,0.612505,0.767248,-0.00192,0.660902,0.806546,-0.008922,0,0,0,0,0,0,1,0,0,0,0,0,0,0,0
1114,'2025/06/30 16:23:54:702',51,0.330266,-0.030526,-0.063643,-0.061908,-0.064379,0.267194,0,-0.355589,0.681809,0.739884,-0.015353,0.652504,0.736802,0.001168,0.612505,0.767248,-0.00192,0.660902,0.806546,-0.008922,0,0,0,0,0,0,1,0,0,0,0,0,0,0,0
1115,'2025/06/30 16:23:54:709',51,0.330266,-0.030526,-0.063643,-0.061908,-0.064379,0.267194,0,-0.355589,0.681809,0.739884,-0.015353,0.652504,0.736802,0.001168,0.612505,0.767248,-0.00192,0.660902,0.806546,-0.008922,0,0,0,0,0,0,1,0,0,0,0,0,0,0,0
1116,'2025/06/30 16:23:54:714',51,0.330266,-0.030526,-0.063643,-0.061908,-0.064379,0.267194,0,-0.355589,0.681809,0.739884,-0.015353,0.652504,0.736802,0.001168,0.612505,0.767248,-0.00192,0.660902,0.806546,-0.008922,0,0,0,0,0,0,1,0,0,0,0,0,0,0,0
1117,'2025/06/30 16:23:54:720',51,0.330266,-0.030526,-0.063643,-0.061908,-0.064379,0.267194,0,-0.355589,0.681809,0.739884,-0.015353,0.652504,0.736802,0.001168,0.612505,0.767248,-0.00192,0.660902,0.806546,-0.008922,0,0,0,0,0,0,1,0,0,0,0,0,0,0,0
1118,'2025/06/30 16:23:54:724',51,0.330266,-0.030526,-0.063643,-0.061908,-0.064379,0.267194,0,-0.355589,0.681809,0.739884,-0.015353,0.652504,0.736802,0.001168,0.612505,0.767248,-0.00192,0.660902,0.806546,-0.008922,0,0,0,0,0,0,1,0,0,0,0,0,0,0,0
1119,'2025/06/30 16:23:54:732',51,0.330266,-0.030526,-0.063643,-0.061908,-0.064379,0.267194,0,-0.355589,0.681809,0.739884,-0.015353,0.652504,0.736802,0.001168,0.612505,0.767248,-0.00192,0.660902,0.806546,-0.008922,0,0,0,0,0,0,1,0,0,0,0,0,0,0,0
1120,'2025/06/30 16:23:54:737',51,0.330266,-0.030526,-0.063643,-0.061908,-0.064379,0.267194,0,-0.355589,0.681809,0.739884,-0.015353,0.652504,0.736802,0.001168,0.612505,0.767248,-0.00192,0.660902,0.806546,-0.008922,0,0,0,0,0,0,1,0,0,0,0,0,0,0,0
1121,'2025/06/30 16:23:54:743',51,0.330266,-0.030526,-0.063643,-0.061908,-0.064379,0.267194,0,-0.355589,0.681809,0.739884,-0.015353,0.652504,0.736802,0.001168,0.612505,0.767248,-0.00192,0.660902,0.806546,-0.008922,0,0,0,0,0,0,1,0,0,0,0,0,0,0,0
1122,'2025/06/30 16:23:54:749',51,0.330266,-0.030526,-0.063643,-0.061908,-0.064379,0.267194,0,-0.355589,0.681809,0.739884,-0.015353,0.652504,0.736802,0.001168,0.612505,0.767248,-0.00192,0.660902,0.806546,-0.008922,0,0,0,0,0,0,1,0,0,0,0,0,0,0,0
1123,'2025/06/30 16:23:54:755',51,0.330266,-0.030526,-0.063643,-0.061908,-0.064379,0.267194,0,-0.355589,0.681809,0.739884,-0.015353,0.652504,0.736802,0.001168,0.612505,0.767248,-0.00192,0.660902,0.806546,-0.008922,0,0,0,0,0,0,1,0,0,0,0,0,0,0,0
1124,'2025/06/30 16:23:54:761',51,0.330266,-0.030526,-0.063643,-0.061908,-0.064379,0.267194,0,-0.355589,0.681809,0.739884,-0.015353,0.652504,0.736802,0.001168,0.612505,0.767248,-0.00192,0.660902,0.806546,-0.008922,0,0,0,0,0,0,1,0,0,0,0,0,0,0,0
1125,'2025/06/30 16:24:10:492',52,0.330266,-0.034702,-0.051219,-0.051226,-0.055105,0.267194,0,-0.355589,0.495436,0.836597,0.004536,0.522068,0.817583,-0.005065,0.502475,0.821288,-0.007823,0.593317,0.832074,-0.015698,0,0,0,0,0,0,1,0,0,0,0,0,0,0,0
1126,'2025/06/30 16:24:10:498',52,0.330266,-0.034702,-0.051219,-0.051226,-0.055105,0.267194,0,-0.355589,0.495436,0.836597,0.004536,0.522068,0.817583,-0.005065,0.502475,0.821288,-0.007823,0.593317,0.832074,-0.015698,0,0,0,0,0,0,1,0,0,0,0,0,0,0,0
1127,'2025/06/30 16:24:10:504',52,0.330266,-0.034702,-0.051219,-0.051226,-0.055105,0.267194,0,-0.355589,0.495436,0.836597,0.004536,0.522068,0.817583,-0.005065,0.502475,0.821288,-0.007823,0.593317,0.832074,-0.015698,0,0,0,0,0,0,1,0,0,0,0,0,0,0,0
1128,'2025/06/30 16:24:10:510',52,0.330266,-0.034702,-0.051219,-0.051226,-0.055105,0.267194,0,-0.355589,0.495436,0.836597,0.004536,0.522068,0.817583,-0.005065,0.502475,0.821288,-0.007823,0.593317,0.832074,-0.015698,0,0,0,0,0,0,1,0,0,0,0,0,0,0,0
1129,'2025/06/30 16:24:10:515',52,0.330266,-0.034702,-0.051219,-0.051226,-0.055105,0.267194,0,-0.355589,0.495436,0.836597,0.004536,0.522068,0.817583,-0.005065,0.502475,0.821288,-0.007823,0.593317,0.832074,-0.015698,0,0,0,0,0,0,1,0,0,0,0,0,0,0,0
1130,'2025/06/30 16:24:10:520',52,0.330266,-0.034702,-0.051219,-0.051226,-0.055105,0.267194,0,-0.355589,0.495436,0.836597,0.004536,0.522068,0.817583,-0.005065,0.502475,0.821288,-0.007823,0.593317,0.832074,-0.015698,0,0,0,0,0,0,1,0,0,0,0,0,0,0,0
1131,'2025/06/30 16:24:10:525',52,0.330266,-0.034702,-0.051219,-0.051226,-0.055105,0.267194,0,-0.355589,0.495436,0.836597,0.004536,0.522068,0.817583,-0.005065,0.502475,0.821288,-0.007823,0.593317,0.832074,-0.015698,0,0,0,0,0,0,1,0,0,0,0,0,0,0,0
1132,'2025/06/30 16:24:10:530',52,0.330266,-0.034702,-0.051219,-0.051226,-0.055105,0.267194,0,-0.355589,0.495436,0.836597,0.004536,0.522068,0.817583,-0.005065,0.502475,0.821288,-0.007823,0.593317,0.832074,-0.015698,0,0,0,0,0,0,1,0,0,0,0,0,0,0,0
1133,'2025/06/30 16:24:10:536',52,0.330266,-0.034702,-0.051219,-0.051226,-0.055105,0.267194,0,-0.355589,0.495436,0.836597,0.004536,0.522068,0.817583,-0.005065,0.502475,0.821288,-0.007823,0.593317,0.832074,-0.015698,0,0,0,0,0,0,1,0,0,0,0,0,0,0,0
1134,'2025/06/30 16:24:10:541',52,0.330266,-0.034702,-0.051219,-0.051226,-0.055105,0.267194,0,-0.355589,0.495436,0.836597,0.004536,0.522068,0.817583,-0.005065,0.502475,0.821288,-0.007823,0.593317,0.832074,-0.015698,0,0,0,0,0,0,1,0,0,0,0,0,0,0,0
1135,'2025/06/30 16:24:10:547',52,0.330266,-0.034702,-0.051219,-0.051226,-0.055105,0.267194,0,-0.355589,0.495436,0.836597,0.004536,0.522068,0.817583,-0.005065,0.502475,0.821288,-0.007823,0.593317,0.832074,-0.015698,0,0,0,0,0,0,1,0,0,0,0,0,0,0,0
1136,'2025/06/30 16:24:10:552',52,0.330266,-0.034702,-0.051219,-0.051226,-0.055105,0.267194,0,-0.355589,0.495436,0.836597,0.004536,0.522068,0.817583,-0.005065,0.502475,0.821288,-0.007823,0.593317,0.832074,-0.015698,0,0,0,0,0,0,1,0,0,0,0,0,0,0,0
1137,'2025/06/30 16:24:10:558',52,0.330266,-0.034702,-0.051219,-0.051226,-0.055105,0.267194,0,-0.355589,0.495436,0.836597,0.004536,0.522068,0.817583,-0.005065,0.502475,0.821288,-0.007823,0.593317,0.832074,-0.015698,0,0,0,0,0,0,1,0,0,0,0,0,0,0,0
1138,'2025/06/30 16:24:10:563',52,0.330266,-0.034702,-0.051219,-0.051226,-0.055105,0.267194,0,-0.355589,0.495436,0.836597,0.004536,0.522068,0.817583,-0.005065,0.502475,0.821288,-0.007823,0.593317,0.832074,-0.015698,0,0,0,0,0,0,1,0,0,0,0,0,0,0,0
1139,'2025/06/30 16:24:10:567',52,0.330266,-0.034702,-0.051219,-0.051226,-0.055105,0.267194,0,-0.355589,0.495436,0.836597,0.004536,0.522068,0.817583,-0.005065,0.502475,0.821288,-0.007823,0.593317,0.832074,-0.015698,0,0,0,0,0,0,1,0,0,0,0,0,0,0,0
1140,'2025/06/30 16:24:10:572',52,0.330266,-0.034702,-0.051219,-0.051226,-0.055105,0.267194,0,-0.355589,0.495436,0.836597,0.004536,0.522068,0.817583,-0.005065,0.502475,0.821288,-0.007823,0.593317,0.832074,-0.015698,0,0,0,0,0,0,1,0,0,0,0,0,0,0,0
1141,'2025/06/30 16:24:10:578',52,0.330266,-0.034702,-0.051219,-0.051226,-0.055105,0.267194,0,-0.355589,0.495436,0.836597,0.004536,0.522068,0.817583,-0.005065,0.502475,0.821288,-0.007823,0.593317,0.832074,-0.015698,0,0,0,0,0,0,1,0,0,0,0,0,0,0,0
1142,'2025/06/30 16:24:10:583',52,0.330266,-0.034702,-0.051219,-0.051226,-0.055105,0.267194,0,-0.355589,0.495436,0.836597,0.004536,0.522068,0.817583,-0.005065,0.502475,0.821288,-0.007823,0.593317,0.832074,-0.015698,0,0,0,0,0,0,1,0,0,0,0,0,0,0,0
1143,'2025/06/30 16:24:10:589',52,0.330266,-0.034702,-0.051219,-0.051226,-0.055105,0.267194,0,-0.355589,0.495436,0.836597,0.004536,0.522068,0.817583,-0.005065,0.502475,0.821288,-0.007823,0.593317,0.832074,-0.015698,0,0,0,0,0,0,1,0,0,0,0,0,0,0,0
1144,'2025/06/30 16:24:10:595',52,0.330266,-0.034702,-0.051219,-0.051226,-0.055105,0.267194,0,-0.355589,0.495436,0.836597,0.004536,0.522068,0.817583,-0.005065,0.502475,0.821288,-0.007823,0.593317,0.832074,-0.015698,0,0,0,0,0,0,1,0,0,0,0,0,0,0,0
1145,'2025/06/30 16:24:10:603',52,0.330266,-0.034702,-0.051219,-0.051226,-0.055105,0.267194,0,-0.355589,0.495436,0.836597,0.004536,0.522068,0.817583,-0.005065,0.502475,0.821288,-0.007823,0.593317,0.832074,-0.015698,0,0,0,0,0,0,1,0,0,0,0,0,0,0,0
1146,'2025/06/30 16:24:10:609',52,0.330266,-0.034702,-0.051219,-0.051226,-0.055105,0.267194,0,-0.355589,0.495436,0.836597,0.004536,0.522068,0.817583,-0.005065,0.502475,0.821288,-0.007823,0.593317,0.832074,-0.015698,0,0,0,0,0,0,1,0,0,0,0,0,0,0,0
1147,'2025/06/30 16:24:10:616',52,0.330266,-0.034702,-0.051219,-0.051226,-0.055105,0.267194,0,-0.355589,0.495436,0.836597,0.004536,0.522068,0.817583,-0.005065,0.502475,0.821288,-0.007823,0.593317,0.832074,-0.015698,0,0,0,0,0,0,1,0,0,0,0,0,0,0,0
1148,'2025/06/30 16:24:12:964',53,0.43342,-0.034702,-0.051219,-0.051226,-0.055105,0.304178,0,-0.460627,0.495436,0.836597,0.004536,0.522068,0.817583,-0.005065,0.502475,0.821288,-0.007823,0.593317,0.832074,-0.015698,0,0,0,0,0,0,1,0,0,0,0,0,0,0,0
1149,'2025/06/30 16:24:12:969',53,0.43342,-0.034702,-0.051219,-0.051226,-0.055105,0.304178,0,-0.460627,0.495436,0.836597,0.004536,0.522068,0.817583,-0.005065,0.502475,0.821288,-0.007823,0.593317,0.832074,-0.015698,0,0,0,0,0,0,1,0,0,0,0,0,0,0,0
1150,'2025/06/30 16:24:12:976',53,0.43342,-0.034702,-0.051219,-0.051226,-0.055105,0.304178,0,-0.460627,0.495436,0.836597,0.004536,0.522068,0.817583,-0.005065,0.502475,0.821288,-0.007823,0.593317,0.832074,-0.015698,0,0,0,0,0,0,1,0,0,0,0,0,0,0,0
1151,'2025/06/30 16:24:12:983',53,0.43342,-0.034702,-0.051219,-0.051226,-0.055105,0.304178,0,-0.460627,0.495436,0.836597,0.004536,0.522068,0.817583,-0.005065,0.502475,0.821288,-0.007823,0.593317,0.832074,-0.015698,0,0,0,0,0,0,1,0,0,0,0,0,0,0,0
1152,'2025/06/30 16:24:12:989',53,0.43342,-0.034702,-0.051219,-0.051226,-0.055105,0.304178,0,-0.460627,0.495436,0.836597,0.004536,0.522068,0.817583,-0.005065,0.502475,0.821288,-0.007823,0.593317,0.832074,-0.015698,0,0,0,0,0,0,1,0,0,0,0,0,0,0,0
1153,'2025/06/30 16:24:12:995',53,0.43342,-0.034702,-0.051219,-0.051226,-0.055105,0.304178,0,-0.460627,0.495436,0.836597,0.004536,0.522068,0.817583,-0.005065,0.502475,0.821288,-0.007823,0.593317,0.832074,-0.015698,0,0,0,0,0,0,1,0,0,0,0,0,0,0,0
1154,'2025/06/30 16:24:13:001',53,0.43342,-0.034702,-0.051219,-0.051226,-0.055105,0.304178,0,-0.460627,0.495436,0.836597,0.004536,0.522068,0.817583,-0.005065,0.502475,0.821288,-0.007823,0.593317,0.832074,-0.015698,0,0,0,0,0,0,1,0,0,0,0,0,0,0,0
1155,'2025/06/30 16:24:13:007',53,0.43342,-0.034702,-0.051219,-0.051226,-0.055105,0.304178,0,-0.460627,0.495436,0.836597,0.004536,0.522068,0.817583,-0.005065,0.502475,0.821288,-0.007823,0.593317,0.832074,-0.015698,0,0,0,0,0,0,1,0,0,0,0,0,0,0,0
1156,'2025/06/30 16:24:13:013',53,0.43342,-0.034702,-0.051219,-0.051226,-0.055105,0.304178,0,-0.460627,0.495436,0.836597,0.004536,0.522068,0.817583,-0.005065,0.502475,0.821288,-0.007823,0.593317,0.832074,-0.015698,0,0,0,0,0,0,1,0,0,0,0,0,0,0,0
1157,'2025/06/30 16:24:13:019',53,0.43342,-0.034702,-0.051219,-0.051226,-0.055105,0.304178,0,-0.460627,0.495436,0.836597,0.004536,0.522068,0.817583,-0.005065,0.502475,0.821288,-0.007823,0.593317,0.832074,-0.015698,0,0,0,0,0,0,1,0,0,0,0,0,0,0,0
1158,'2025/06/30 16:24:13:026',53,0.43342,-0.034702,-0.051219,-0.051226,-0.055105,0.304178,0,-0.460627,0.495436,0.836597,0.004536,0.522068,0.817583,-0.005065,0.502475,0.821288,-0.007823,0.593317,0.832074,-0.015698,0,0,0,0,0,0,1,0,0,0,0,0,0,0,0
1159,'2025/06/30 16:24:13:030',53,0.43342,-0.034702,-0.051219,-0.051226,-0.055105,0.304178,0,-0.460627,0.495436,0.836597,0.004536,0.522068,0.817583,-0.005065,0.502475,0.821288,-0.007823,0.593317,0.832074,-0.015698,0,0,0,0,0,0,1,0,0,0,0,0,0,0,0
1160,'2025/06/30 16:24:13:036',53,0.43342,-0.034702,-0.051219,-0.051226,-0.055105,0.304178,0,-0.460627,0.495436,0.836597,0.004536,0.522068,0.817583,-0.005065,0.502475,0.821288,-0.007823,0.593317,0.832074,-0.015698,0,0,0,0,0,0,1,0,0,0,0,0,0,0,0
1161,'2025/06/30 16:24:13:041',53,0.43342,-0.034702,-0.051219,-0.051226,-0.055105,0.304178,0,-0.460627,0.495436,0.836597,0.004536,0.522068,0.817583,-0.005065,0.502475,0.821288,-0.007823,0.593317,0.832074,-0.015698,0,0,0,0,0,0,1,0,0,0,0,0,0,0,0
1162,'2025/06/30 16:24:13:048',53,0.43342,-0.034702,-0.051219,-0.051226,-0.055105,0.304178,0,-0.460627,0.495436,0.836597,0.004536,0.522068,0.817583,-0.005065,0.502475,0.821288,-0.007823,0.593317,0.832074,-0.015698,0,0,0,0,0,0,1,0,0,0,0,0,0,0,0
1163,'2025/06/30 16:24:13:053',53,0.43342,-0.034702,-0.051219,-0.051226,-0.055105,0.304178,0,-0.460627,0.495436,0.836597,0.004536,0.522068,0.817583,-0.005065,0.502475,0.821288,-0.007823,0.593317,0.832074,-0.015698,0,0,0,0,0,0,1,0,0,0,0,0,0,0,0
1164,'2025/06/30 16:24:13:059',53,0.43342,-0.034702,-0.051219,-0.051226,-0.055105,0.304178,0,-0.460627,0.495436,0.836597,0.004536,0.522068,0.817583,-0.005065,0.502475,0.821288,-0.007823,0.593317,0.832074,-0.015698,0,0,0,0,0,0,1,0,0,0,0,0,0,0,0
1165,'2025/06/30 16:24:13:064',53,0.43342,-0.034702,-0.051219,-0.051226,-0.055105,0.304178,0,-0.460627,0.495436,0.836597,0.004536,0.522068,0.817583,-0.005065,0.502475,0.821288,-0.007823,0.593317,0.832074,-0.015698,0,0,0,0,0,0,1,0,0,0,0,0,0,0,0
1166,'2025/06/30 16:24:13:071',53,0.43342,-0.034702,-0.051219,-0.051226,-0.055105,0.304178,0,-0.460627,0.495436,0.836597,0.004536,0.522068,0.817583,-0.005065,0.502475,0.821288,-0.007823,0.593317,0.832074,-0.015698,0,0,0,0,0,0,1,0,0,0,0,0,0,0,0
1167,'2025/06/30 16:24:13:076',53,0.43342,-0.034702,-0.051219,-0.051226,-0.055105,0.304178,0,-0.460627,0.495436,0.836597,0.004536,0.522068,0.817583,-0.005065,0.502475,0.821288,-0.007823,0.593317,0.832074,-0.015698,0,0,0,0,0,0,1,0,0,0,0,0,0,0,0
1168,'2025/06/30 16:24:13:083',53,0.43342,-0.034702,-0.051219,-0.051226,-0.055105,0.304178,0,-0.460627,0.495436,0.836597,0.004536,0.522068,0.817583,-0.005065,0.502475,0.821288,-0.007823,0.593317,0.832074,-0.015698,0,0,0,0,0,0,1,0,0,0,0,0,0,0,0
1169,'2025/06/30 16:24:13:090',53,0.43342,-0.034702,-0.051219,-0.051226,-0.055105,0.304178,0,-0.460627,0.495436,0.836597,0.004536,0.522068,0.817583,-0.005065,0.502475,0.821288,-0.007823,0.593317,0.832074,-0.015698,0,0,0,0,0,0,1,0,0,0,0,0,0,0,0
1170,'2025/06/30 16:24:14:823',54,0.480673,-0.034702,-0.051219,-0.051226,-0.055105,0.331884,0,-0.509428,0.495436,0.836597,0.004536,0.522068,0.817583,-0.005065,0.502475,0.821288,-0.007823,0.593317,0.832074,-0.015698,0,0,0,0,0,0,1,0,0,0,0,0,0,0,0
1171,'2025/06/30 16:24:14:827',54,0.480673,-0.034702,-0.051219,-0.051226,-0.055105,0.331884,0,-0.509428,0.495436,0.836597,0.004536,0.522068,0.817583,-0.005065,0.502475,0.821288,-0.007823,0.593317,0.832074,-0.015698,0,0,0,0,0,0,1,0,0,0,0,0,0,0,0
1172,'2025/06/30 16:24:14:832',54,0.480673,-0.034702,-0.051219,-0.051226,-0.055105,0.331884,0,-0.509428,0.495436,0.836597,0.004536,0.522068,0.817583,-0.005065,0.502475,0.821288,-0.007823,0.593317,0.832074,-0.015698,0,0,0,0,0,0,1,0,0,0,0,0,0,0,0
1173,'2025/06/30 16:24:14:837',54,0.480673,-0.034702,-0.051219,-0.051226,-0.055105,0.331884,0,-0.509428,0.495436,0.836597,0.004536,0.522068,0.817583,-0.005065,0.502475,0.821288,-0.007823,0.593317,0.832074,-0.015698,0,0,0,0,0,0,1,0,0,0,0,0,0,0,0
1174,'2025/06/30 16:24:14:843',54,0.480673,-0.034702,-0.051219,-0.051226,-0.055105,0.331884,0,-0.509428,0.495436,0.836597,0.004536,0.522068,0.817583,-0.005065,0.502475,0.821288,-0.007823,0.593317,0.832074,-0.015698,0,0,0,0,0,0,1,0,0,0,0,0,0,0,0
1175,'2025/06/30 16:24:14:847',54,0.480673,-0.034702,-0.051219,-0.051226,-0.055105,0.331884,0,-0.509428,0.495436,0.836597,0.004536,0.522068,0.817583,-0.005065,0.502475,0.821288,-0.007823,0.593317,0.832074,-0.015698,0,0,0,0,0,0,1,0,0,0,0,0,0,0,0
1176,'2025/06/30 16:24:14:851',54,0.480673,-0.034702,-0.051219,-0.051226,-0.055105,0.331884,0,-0.509428,0.495436,0.836597,0.004536,0.522068,0.817583,-0.005065,0.502475,0.821288,-0.007823,0.593317,0.832074,-0.015698,0,0,0,0,0,0,1,0,0,0,0,0,0,0,0
1177,'2025/06/30 16:24:14:857',54,0.480673,-0.034702,-0.051219,-0.051226,-0.055105,0.331884,0,-0.509428,0.495436,0.836597,0.004536,0.522068,0.817583,-0.005065,0.502475,0.821288,-0.007823,0.593317,0.832074,-0.015698,0,0,0,0,0,0,1,0,0,0,0,0,0,0,0
1178,'2025/06/30 16:24:14:862',54,0.480673,-0.034702,-0.051219,-0.051226,-0.055105,0.331884,0,-0.509428,0.495436,0.836597,0.004536,0.522068,0.817583,-0.005065,0.502475,0.821288,-0.007823,0.593317,0.832074,-0.015698,0,0,0,0,0,0,1,0,0,0,0,0,0,0,0
1179,'2025/06/30 16:24:14:867',54,0.480673,-0.034702,-0.051219,-0.051226,-0.055105,0.331884,0,-0.509428,0.495436,0.836597,0.004536,0.522068,0.817583,-0.005065,0.502475,0.821288,-0.007823,0.593317,0.832074,-0.015698,0,0,0,0,0,0,1,0,0,0,0,0,0,0,0
1180,'2025/06/30 16:24:14:873',54,0.480673,-0.034702,-0.051219,-0.051226,-0.055105,0.331884,0,-0.509428,0.495436,0.836597,0.004536,0.522068,0.817583,-0.005065,0.502475,0.821288,-0.007823,0.593317,0.832074,-0.015698,0,0,0,0,0,0,1,0,0,0,0,0,0,0,0
1181,'2025/06/30 16:24:14:878',54,0.480673,-0.034702,-0.051219,-0.051226,-0.055105,0.331884,0,-0.509428,0.495436,0.836597,0.004536,0.522068,0.817583,-0.005065,0.502475,0.821288,-0.007823,0.593317,0.832074,-0.015698,0,0,0,0,0,0,1,0,0,0,0,0,0,0,0
1182,'2025/06/30 16:24:14:884',54,0.480673,-0.034702,-0.051219,-0.051226,-0.055105,0.331884,0,-0.509428,0.495436,0.836597,0.004536,0.522068,0.817583,-0.005065,0.502475,0.821288,-0.007823,0.593317,0.832074,-0.015698,0,0,0,0,0,0,1,0,0,0,0,0,0,0,0
1183,'2025/06/30 16:24:14:891',54,0.480673,-0.034702,-0.051219,-0.051226,-0.055105,0.331884,0,-0.509428,0.495436,0.836597,0.004536,0.522068,0.817583,-0.005065,0.502475,0.821288,-0.007823,0.593317,0.832074,-0.015698,0,0,0,0,0,0,1,0,0,0,0,0,0,0,0
1184,'2025/06/30 16:24:14:895',54,0.480673,-0.034702,-0.051219,-0.051226,-0.055105,0.331884,0,-0.509428,0.495436,0.836597,0.004536,0.522068,0.817583,-0.005065,0.502475,0.821288,-0.007823,0.593317,0.832074,-0.015698,0,0,0,0,0,0,1,0,0,0,0,0,0,0,0
1185,'2025/06/30 16:24:14:900',54,0.480673,-0.034702,-0.051219,-0.051226,-0.055105,0.331884,0,-0.509428,0.495436,0.836597,0.004536,0.522068,0.817583,-0.005065,0.502475,0.821288,-0.007823,0.593317,0.832074,-0.015698,0,0,0,0,0,0,1,0,0,0,0,0,0,0,0
1186,'2025/06/30 16:24:14:905',54,0.480673,-0.034702,-0.051219,-0.051226,-0.055105,0.331884,0,-0.509428,0.495436,0.836597,0.004536,0.522068,0.817583,-0.005065,0.502475,0.821288,-0.007823,0.593317,0.832074,-0.015698,0,0,0,0,0,0,1,0,0,0,0,0,0,0,0
1187,'2025/06/30 16:24:14:911',54,0.480673,-0.034702,-0.051219,-0.051226,-0.055105,0.331884,0,-0.509428,0.495436,0.836597,0.004536,0.522068,0.817583,-0.005065,0.502475,0.821288,-0.007823,0.593317,0.832074,-0.015698,0,0,0,0,0,0,1,0,0,0,0,0,0,0,0
1188,'2025/06/30 16:24:14:916',54,0.480673,-0.034702,-0.051219,-0.051226,-0.055105,0.331884,0,-0.509428,0.495436,0.836597,0.004536,0.522068,0.817583,-0.005065,0.502475,0.821288,-0.007823,0.593317,0.832074,-0.015698,0,0,0,0,0,0,1,0,0,0,0,0,0,0,0
1189,'2025/06/30 16:24:14:921',54,0.480673,-0.034702,-0.051219,-0.051226,-0.055105,0.331884,0,-0.509428,0.495436,0.836597,0.004536,0.522068,0.817583,-0.005065,0.502475,0.821288,-0.007823,0.593317,0.832074,-0.015698,0,0,0,0,0,0,1,0,0,0,0,0,0,0,0
1190,'2025/06/30 16:24:14:927',54,0.480673,-0.034702,-0.051219,-0.051226,-0.055105,0.331884,0,-0.509428,0.495436,0.836597,0.004536,0.522068,0.817583,-0.005065,0.502475,0.821288,-0.007823,0.593317,0.832074,-0.015698,0,0,0,0,0,0,1,0,0,0,0,0,0,0,0
1191,'2025/06/30 16:24:14:932',54,0.480673,-0.034702,-0.051219,-0.051226,-0.055105,0.331884,0,-0.509428,0.495436,0.836597,0.004536,0.522068,0.817583,-0.005065,0.502475,0.821288,-0.007823,0.593317,0.832074,-0.015698,0,0,0,0,0,0,1,0,0,0,0,0,0,0,0
1192,'2025/06/30 16:24:14:939',54,0.480673,-0.034702,-0.051219,-0.051226,-0.055105,0.331884,0,-0.509428,0.495436,0.836597,0.004536,0.522068,0.817583,-0.005065,0.502475,0.821288,-0.007823,0.593317,0.832074,-0.015698,0,0,0,0,0,0,1,0,0,0,0,0,0,0,0
1193,'2025/06/30 16:24:17:980',55,0.33384,-0.034702,-0.051219,-0.051226,-0.055105,0.235687,0,-0.356961,0.495436,0.836597,0.004536,0.522068,0.817583,-0.005065,0.502475,0.821288,-0.007823,0.593317,0.832074,-0.015698,0,0,0,0,0,0,1,0,0,0,0,0,0,0,0
1194,'2025/06/30 16:24:17:986',55,0.33384,-0.034702,-0.051219,-0.051226,-0.055105,0.235687,0,-0.356961,0.495436,0.836597,0.004536,0.522068,0.817583,-0.005065,0.502475,0.821288,-0.007823,0.593317,0.832074,-0.015698,0,0,0,0,0,0,1,0,0,0,0,0,0,0,0
1195,'2025/06/30 16:24:17:990',55,0.33384,-0.034702,-0.051219,-0.051226,-0.055105,0.235687,0,-0.356961,0.495436,0.836597,0.004536,0.522068,0.817583,-0.005065,0.502475,0.821288,-0.007823,0.593317,0.832074,-0.015698,0,0,0,0,0,0,1,0,0,0,0,0,0,0,0
1196,'2025/06/30 16:24:17:997',55,0.33384,-0.034702,-0.051219,-0.051226,-0.055105,0.235687,0,-0.356961,0.495436,0.836597,0.004536,0.522068,0.817583,-0.005065,0.502475,0.821288,-0.007823,0.593317,0.832074,-0.015698,0,0,0,0,0,0,1,0,0,0,0,0,0,0,0
1197,'2025/06/30 16:24:18:003',55,0.33384,-0.034702,-0.051219,-0.051226,-0.055105,0.235687,0,-0.356961,0.495436,0.836597,0.004536,0.522068,0.817583,-0.005065,0.502475,0.821288,-0.007823,0.593317,0.832074,-0.015698,0,0,0,0,0,0,1,0,0,0,0,0,0,0,0
1198,'2025/06/30 16:24:18:009',55,0.33384,-0.034702,-0.051219,-0.051226,-0.055105,0.235687,0,-0.356961,0.495436,0.836597,0.004536,0.522068,0.817583,-0.005065,0.502475,0.821288,-0.007823,0.593317,0.832074,-0.015698,0,0,0,0,0,0,1,0,0,0,0,0,0,0,0
1199,'2025/06/30 16:24:18:013',55,0.33384,-0.034702,-0.051219,-0.051226,-0.055105,0.235687,0,-0.356961,0.495436,0.836597,0.004536,0.522068,0.817583,-0.005065,0.502475,0.821288,-0.007823,0.593317,0.832074,-0.015698,0,0,0,0,0,0,1,0,0,0,0,0,0,0,0
1200,'2025/06/30 16:24:18:019',55,0.33384,-0.034702,-0.051219,-0.051226,-0.055105,0.235687,0,-0.356961,0.495436,0.836597,0.004536,0.522068,0.817583,-0.005065,0.502475,0.821288,-0.007823,0.593317,0.832074,-0.015698,0,0,0,0,0,0,1,0,0,0,0,0,0,0,0
1201,'2025/06/30 16:24:18:025',55,0.33384,-0.034702,-0.051219,-0.051226,-0.055105,0.235687,0,-0.356961,0.495436,0.836597,0.004536,0.522068,0.817583,-0.005065,0.502475,0.821288,-0.007823,0.593317,0.832074,-0.015698,0,0,0,0,0,0,1,0,0,0,0,0,0,0,0
1202,'2025/06/30 16:24:18:030',55,0.33384,-0.034702,-0.051219,-0.051226,-0.055105,0.235687,0,-0.356961,0.495436,0.836597,0.004536,0.522068,0.817583,-0.005065,0.502475,0.821288,-0.007823,0.593317,0.832074,-0.015698,0,0,0,0,0,0,1,0,0,0,0,0,0,0,0
1203,'2025/06/30 16:24:18:036',55,0.33384,-0.034702,-0.051219,-0.051226,-0.055105,0.235687,0,-0.356961,0.495436,0.836597,0.004536,0.522068,0.817583,-0.005065,0.502475,0.821288,-0.007823,0.593317,0.832074,-0.015698,0,0,0,0,0,0,1,0,0,0,0,0,0,0,0
1204,'2025/06/30 16:24:18:041',55,0.33384,-0.034702,-0.051219,-0.051226,-0.055105,0.235687,0,-0.356961,0.495436,0.836597,0.004536,0.522068,0.817583,-0.005065,0.502475,0.821288,-0.007823,0.593317,0.832074,-0.015698,0,0,0,0,0,0,1,0,0,0,0,0,0,0,0
1205,'2025/06/30 16:24:18:048',55,0.33384,-0.034702,-0.051219,-0.051226,-0.055105,0.235687,0,-0.356961,0.495436,0.836597,0.004536,0.522068,0.817583,-0.005065,0.502475,0.821288,-0.007823,0.593317,0.832074,-0.015698,0,0,0,0,0,0,1,0,0,0,0,0,0,0,0
1206,'2025/06/30 16:24:18:052',55,0.33384,-0.034702,-0.051219,-0.051226,-0.055105,0.235687,0,-0.356961,0.495436,0.836597,0.004536,0.522068,0.817583,-0.005065,0.502475,0.821288,-0.007823,0.593317,0.832074,-0.015698,0,0,0,0,0,0,1,0,0,0,0,0,0,0,0
1207,'2025/06/30 16:24:18:057',55,0.33384,-0.034702,-0.051219,-0.051226,-0.055105,0.235687,0,-0.356961,0.495436,0.836597,0.004536,0.522068,0.817583,-0.005065,0.502475,0.821288,-0.007823,0.593317,0.832074,-0.015698,0,0,0,0,0,0,1,0,0,0,0,0,0,0,0
1208,'2025/06/30 16:24:18:062',55,0.33384,-0.034702,-0.051219,-0.051226,-0.055105,0.235687,0,-0.356961,0.495436,0.836597,0.004536,0.522068,0.817583,-0.005065,0.502475,0.821288,-0.007823,0.593317,0.832074,-0.015698,0,0,0,0,0,0,1,0,0,0,0,0,0,0,0
1209,'2025/06/30 16:24:18:067',55,0.33384,-0.034702,-0.051219,-0.051226,-0.055105,0.235687,0,-0.356961,0.495436,0.836597,0.004536,0.522068,0.817583,-0.005065,0.502475,0.821288,-0.007823,0.593317,0.832074,-0.015698,0,0,0,0,0,0,1,0,0,0,0,0,0,0,0
1210,'2025/06/30 16:24:18:071',55,0.33384,-0.034702,-0.051219,-0.051226,-0.055105,0.235687,0,-0.356961,0.495436,0.836597,0.004536,0.522068,0.817583,-0.005065,0.502475,0.821288,-0.007823,0.593317,0.832074,-0.015698,0,0,0,0,0,0,1,0,0,0,0,0,0,0,0
1211,'2025/06/30 16:24:18:076',55,0.33384,-0.034702,-0.051219,-0.051226,-0.055105,0.235687,0,-0.356961,0.495436,0.836597,0.004536,0.522068,0.817583,-0.005065,0.502475,0.821288,-0.007823,0.593317,0.832074,-0.015698,0,0,0,0,0,0,1,0,0,0,0,0,0,0,0
1212,'2025/06/30 16:24:18:081',55,0.33384,-0.034702,-0.051219,-0.051226,-0.055105,0.235687,0,-0.356961,0.495436,0.836597,0.004536,0.522068,0.817583,-0.005065,0.502475,0.821288,-0.007823,0.593317,0.832074,-0.015698,0,0,0,0,0,0,1,0,0,0,0,0,0,0,0
1213,'2025/06/30 16:24:18:086',55,0.33384,-0.034702,-0.051219,-0.051226,-0.055105,0.235687,0,-0.356961,0.495436,0.836597,0.004536,0.522068,0.817583,-0.005065,0.502475,0.821288,-0.007823,0.593317,0.832074,-0.015698,0,0,0,0,0,0,1,0,0,0,0,0,0,0,0
1214,'2025/06/30 16:24:18:092',55,0.33384,-0.034702,-0.051219,-0.051226,-0.055105,0.235687,0,-0.356961,0.495436,0.836597,0.004536,0.522068,0.817583,-0.005065,0.502475,0.821288,-0.007823,0.593317,0.832074,-0.015698,0,0,0,0,0,0,1,0,0,0,0,0,0,0,0
1215,'2025/06/30 16:24:18:096',55,0.33384,-0.034702,-0.051219,-0.051226,-0.055105,0.235687,0,-0.356961,0.495436,0.836597,0.004536,0.522068,0.817583,-0.005065,0.502475,0.821288,-0.007823,0.593317,0.832074,-0.015698,0,0,0,0,0,0,1,0,0,0,0,0,0,0,0
1216,'2025/06/30 16:24:18:101',55,0.33384,-0.034702,-0.051219,-0.051226,-0.055105,0.235687,0,-0.356961,0.495436,0.836597,0.004536,0.522068,0.817583,-0.005065,0.502475,0.821288,-0.007823,0.593317,0.832074,-0.015698,0,0,0,0,0,0,1,0,0,0,0,0,0,0,0
1217,'2025/06/30 16:24:18:106',55,0.33384,-0.034702,-0.051219,-0.051226,-0.055105,0.235687,0,-0.356961,0.495436,0.836597,0.004536,0.522068,0.817583,-0.005065,0.502475,0.821288,-0.007823,0.593317,0.832074,-0.015698,0,0,0,0,0,0,1,0,0,0,0,0,0,0,0
1218,'2025/06/30 16:24:18:112',55,0.33384,-0.034702,-0.051219,-0.051226,-0.055105,0.235687,0,-0.356961,0.495436,0.836597,0.004536,0.522068,0.817583,-0.005065,0.502475,0.821288,-0.007823,0.593317,0.832074,-0.015698,0,0,0,0,0,0,1,0,0,0,0,0,0,0,0
1219,'2025/06/30 16:24:18:116',55,0.33384,-0.034702,-0.051219,-0.051226,-0.055105,0.235687,0,-0.356961,0.495436,0.836597,0.004536,0.522068,0.817583,-0.005065,0.502475,0.821288,-0.007823,0.593317,0.832074,-0.015698,0,0,0,0,0,0,1,0,0,0,0,0,0,0,0
1220,'2025/06/30 16:24:18:121',55,0.33384,-0.034702,-0.051219,-0.051226,-0.055105,0.235687,0,-0.356961,0.495436,0.836597,0.004536,0.522068,0.817583,-0.005065,0.502475,0.821288,-0.007823,0.593317,0.832074,-0.015698,0,0,0,0,0,0,1,0,0,0,0,0,0,0,0
1221,'2025/06/30 16:24:18:127',55,0.33384,-0.034702,-0.051219,-0.051226,-0.055105,0.235687,0,-0.356961,0.495436,0.836597,0.004536,0.522068,0.817583,-0.005065,0.502475,0.821288,-0.007823,0.593317,0.832074,-0.015698,0,0,0,0,0,0,1,0,0,0,0,0,0,0,0
1222,'2025/06/30 16:24:40:855',56,0.33384,-0.034702,-0.051219,-0.051226,-0.055105,0.235687,0,-0.356961,0.495436,0.836597,0.004536,0.522068,0.817583,-0.005065,0.502475,0.821288,-0.007823,0.593317,0.832074,-0.015698,0,0,0,0,0,0,1,0,0,0,0,0,0,0,0
1223,'2025/06/30 16:24:40:860',56,0.33384,-0.034702,-0.051219,-0.051226,-0.055105,0.235687,0,-0.356961,0.495436,0.836597,0.004536,0.522068,0.817583,-0.005065,0.502475,0.821288,-0.007823,0.593317,0.832074,-0.015698,0,0,0,0,0,0,1,0,0,0,0,0,0,0,0
1224,'2025/06/30 16:24:40:865',56,0.33384,-0.034702,-0.051219,-0.051226,-0.055105,0.235687,0,-0.356961,0.495436,0.836597,0.004536,0.522068,0.817583,-0.005065,0.502475,0.821288,-0.007823,0.593317,0.832074,-0.015698,0,0,0,0,0,0,1,0,0,0,0,0,0,0,0
1225,'2025/06/30 16:24:40:871',56,0.33384,-0.034702,-0.051219,-0.051226,-0.055105,0.235687,0,-0.356961,0.495436,0.836597,0.004536,0.522068,0.817583,-0.005065,0.502475,0.821288,-0.007823,0.593317,0.832074,-0.015698,0,0,0,0,0,0,1,0,0,0,0,0,0,0,0
1226,'2025/06/30 16:24:40:876',56,0.33384,-0.034702,-0.051219,-0.051226,-0.055105,0.235687,0,-0.356961,0.495436,0.836597,0.004536,0.522068,0.817583,-0.005065,0.502475,0.821288,-0.007823,0.593317,0.832074,-0.015698,0,0,0,0,0,0,1,0,0,0,0,0,0,0,0
1227,'2025/06/30 16:24:40:881',56,0.33384,-0.034702,-0.051219,-0.051226,-0.055105,0.235687,0,-0.356961,0.495436,0.836597,0.004536,0.522068,0.817583,-0.005065,0.502475,0.821288,-0.007823,0.593317,0.832074,-0.015698,0,0,0,0,0,0,1,0,0,0,0,0,0,0,0
1228,'2025/06/30 16:24:40:888',56,0.33384,-0.034702,-0.051219,-0.051226,-0.055105,0.235687,0,-0.356961,0.495436,0.836597,0.004536,0.522068,0.817583,-0.005065,0.502475,0.821288,-0.007823,0.593317,0.832074,-0.015698,0,0,0,0,0,0,1,0,0,0,0,0,0,0,0
1229,'2025/06/30 16:24:40:893',56,0.33384,-0.034702,-0.051219,-0.051226,-0.055105,0.235687,0,-0.356961,0.495436,0.836597,0.004536,0.522068,0.817583,-0.005065,0.502475,0.821288,-0.007823,0.593317,0.832074,-0.015698,0,0,0,0,0,0,1,0,0,0,0,0,0,0,0
1230,'2025/06/30 16:24:40:899',56,0.33384,-0.034702,-0.051219,-0.051226,-0.055105,0.235687,0,-0.356961,0.495436,0.836597,0.004536,0.522068,0.817583,-0.005065,0.502475,0.821288,-0.007823,0.593317,0.832074,-0.015698,0,0,0,0,0,0,1,0,0,0,0,0,0,0,0
1231,'2025/06/30 16:24:40:904',56,0.33384,-0.034702,-0.051219,-0.051226,-0.055105,0.235687,0,-0.356961,0.495436,0.836597,0.004536,0.522068,0.817583,-0.005065,0.502475,0.821288,-0.007823,0.593317,0.832074,-0.015698,0,0,0,0,0,0,1,0,0,0,0,0,0,0,0
1232,'2025/06/30 16:24:40:910',56,0.33384,-0.034702,-0.051219,-0.051226,-0.055105,0.235687,0,-0.356961,0.495436,0.836597,0.004536,0.522068,0.817583,-0.005065,0.502475,0.821288,-0.007823,0.593317,0.832074,-0.015698,0,0,0,0,0,0,1,0,0,0,0,0,0,0,0
1233,'2025/06/30 16:24:40:916',56,0.33384,-0.034702,-0.051219,-0.051226,-0.055105,0.235687,0,-0.356961,0.495436,0.836597,0.004536,0.522068,0.817583,-0.005065,0.502475,0.821288,-0.007823,0.593317,0.832074,-0.015698,0,0,0,0,0,0,1,0,0,0,0,0,0,0,0
1234,'2025/06/30 16:24:40:922',56,0.33384,-0.034702,-0.051219,-0.051226,-0.055105,0.235687,0,-0.356961,0.495436,0.836597,0.004536,0.522068,0.817583,-0.005065,0.502475,0.821288,-0.007823,0.593317,0.832074,-0.015698,0,0,0,0,0,0,1,0,0,0,0,0,0,0,0
1235,'2025/06/30 16:24:40:927',56,0.33384,-0.034702,-0.051219,-0.051226,-0.055105,0.235687,0,-0.356961,0.495436,0.836597,0.004536,0.522068,0.817583,-0.005065,0.502475,0.821288,-0.007823,0.593317,0.832074,-0.015698,0,0,0,0,0,0,1,0,0,0,0,0,0,0,0
1236,'2025/06/30 16:24:40:932',56,0.33384,-0.034702,-0.051219,-0.051226,-0.055105,0.235687,0,-0.356961,0.495436,0.836597,0.004536,0.522068,0.817583,-0.005065,0.502475,0.821288,-0.007823,0.593317,0.832074,-0.015698,0,0,0,0,0,0,1,0,0,0,0,0,0,0,0
1237,'2025/06/30 16:24:40:938',56,0.33384,-0.034702,-0.051219,-0.051226,-0.055105,0.235687,0,-0.356961,0.495436,0.836597,0.004536,0.522068,0.817583,-0.005065,0.502475,0.821288,-0.007823,0.593317,0.832074,-0.015698,0,0,0,0,0,0,1,0,0,0,0,0,0,0,0
1238,'2025/06/30 16:24:40:942',56,0.33384,-0.034702,-0.051219,-0.051226,-0.055105,0.235687,0,-0.356961,0.495436,0.836597,0.004536,0.522068,0.817583,-0.005065,0.502475,0.821288,-0.007823,0.593317,0.832074,-0.015698,0,0,0,0,0,0,1,0,0,0,0,0,0,0,0
1239,'2025/06/30 16:24:40:947',56,0.33384,-0.034702,-0.051219,-0.051226,-0.055105,0.235687,0,-0.356961,0.495436,0.836597,0.004536,0.522068,0.817583,-0.005065,0.502475,0.821288,-0.007823,0.593317,0.832074,-0.015698,0,0,0,0,0,0,1,0,0,0,0,0,0,0,0
1240,'2025/06/30 16:24:40:954',56,0.33384,-0.034702,-0.051219,-0.051226,-0.055105,0.235687,0,-0.356961,0.495436,0.836597,0.004536,0.522068,0.817583,-0.005065,0.502475,0.821288,-0.007823,0.593317,0.832074,-0.015698,0,0,0,0,0,0,1,0,0,0,0,0,0,0,0
1241,'2025/06/30 16:24:40:960',56,0.33384,-0.034702,-0.051219,-0.051226,-0.055105,0.235687,0,-0.356961,0.495436,0.836597,0.004536,0.522068,0.817583,-0.005065,0.502475,0.821288,-0.007823,0.593317,0.832074,-0.015698,0,0,0,0,0,0,1,0,0,0,0,0,0,0,0
1242,'2025/06/30 16:24:40:963',56,0.33384,-0.034702,-0.051219,-0.051226,-0.055105,0.235687,0,-0.356961,0.495436,0.836597,0.004536,0.522068,0.817583,-0.005065,0.502475,0.821288,-0.007823,0.593317,0.832074,-0.015698,0,0,0,0,0,0,1,0,0,0,0,0,0,0,0
1243,'2025/06/30 16:24:40:970',56,0.33384,-0.034702,-0.051219,-0.051226,-0.055105,0.235687,0,-0.356961,0.495436,0.836597,0.004536,0.522068,0.817583,-0.005065,0.502475,0.821288,-0.007823,0.593317,0.832074,-0.015698,0,0,0,0,0,0,1,0,0,0,0,0,0,0,0
1244,'2025/06/30 16:24:40:975',56,0.33384,-0.034702,-0.051219,-0.051226,-0.055105,0.235687,0,-0.356961,0.495436,0.836597,0.004536,0.522068,0.817583,-0.005065,0.502475,0.821288,-0.007823,0.593317,0.832074,-0.015698,0,0,0,0,0,0,1,0,0,0,0,0,0,0,0
1245,'2025/06/30 16:24:40:981',56,0.33384,-0.034702,-0.051219,-0.051226,-0.055105,0.235687,0,-0.356961,0.495436,0.836597,0.004536,0.522068,0.817583,-0.005065,0.502475,0.821288,-0.007823,0.593317,0.832074,-0.015698,0,0,0,0,0,0,1,0,0,0,0,0,0,0,0
1246,'2025/06/30 16:24:40:986',56,0.33384,-0.034702,-0.051219,-0.051226,-0.055105,0.235687,0,-0.356961,0.495436,0.836597,0.004536,0.522068,0.817583,-0.005065,0.502475,0.821288,-0.007823,0.593317,0.832074,-0.015698,0,0,0,0,0,0,1,0,0,0,0,0,0,0,0
1247,'2025/06/30 16:24:40:991',56,0.33384,-0.034702,-0.051219,-0.051226,-0.055105,0.235687,0,-0.356961,0.495436,0.836597,0.004536,0.522068,0.817583,-0.005065,0.502475,0.821288,-0.007823,0.593317,0.832074,-0.015698,0,0,0,0,0,0,1,0,0,0,0,0,0,0,0
1248,'2025/06/30 16:24:53:742',57,0.221924,0,0,0,0,0.251895,0,-0.246759,0,0.009815,-0.009363,0,0,-0.008008,0,0,-0.008007,0,0,-0.008008,0,0,0,0,0,0,0,1,0,0,0,0,0,0,0
1249,'2025/06/30 16:24:53:747',57,0.221924,0,0,0,0,0.251895,0,-0.246759,0,0.009815,-0.009363,0,0,-0.008008,0,0,-0.008007,0,0,-0.008008,0,0,0,0,0,0,0,1,0,0,0,0,0,0,0
1250,'2025/06/30 16:24:53:752',57,0.221924,0,0,0,0,0.251895,0,-0.246759,0,0.009815,-0.009363,0,0,-0.008008,0,0,-0.008007,0,0,-0.008008,0,0,0,0,0,0,0,1,0,0,0,0,0,0,0
1251,'2025/06/30 16:24:53:757',57,0.221924,0,0,0,0,0.251895,0,-0.246759,0,0.009815,-0.009363,0,0,-0.008008,0,0,-0.008007,0,0,-0.008008,0,0,0,0,0,0,0,1,0,0,0,0,0,0,0
1252,'2025/06/30 16:24:53:763',57,0.221924,0,0,0,0,0.251895,0,-0.246759,0,0.009815,-0.009363,0,0,-0.008008,0,0,-0.008007,0,0,-0.008008,0,0,0,0,0,0,0,1,0,0,0,0,0,0,0
1253,'2025/06/30 16:24:53:767',57,0.221924,0,0,0,0,0.251895,0,-0.246759,0,0.009815,-0.009363,0,0,-0.008008,0,0,-0.008007,0,0,-0.008008,0,0,0,0,0,0,0,1,0,0,0,0,0,0,0
1254,'2025/06/30 16:24:53:771',57,0.221924,0,0,0,0,0.251895,0,-0.246759,0,0.009815,-0.009363,0,0,-0.008008,0,0,-0.008007,0,0,-0.008008,0,0,0,0,0,0,0,1,0,0,0,0,0,0,0
1255,'2025/06/30 16:24:53:776',57,0.221924,0,0,0,0,0.251895,0,-0.246759,0,0.009815,-0.009363,0,0,-0.008008,0,0,-0.008007,0,0,-0.008008,0,0,0,0,0,0,0,1,0,0,0,0,0,0,0
1256,'2025/06/30 16:24:53:780',57,0.221924,0,0,0,0,0.251895,0,-0.246759,0,0.009815,-0.009363,0,0,-0.008008,0,0,-0.008007,0,0,-0.008008,0,0,0,0,0,0,0,1,0,0,0,0,0,0,0
1257,'2025/06/30 16:24:53:784',57,0.221924,0,0,0,0,0.251895,0,-0.246759,0,0.009815,-0.009363,0,0,-0.008008,0,0,-0.008007,0,0,-0.008008,0,0,0,0,0,0,0,1,0,0,0,0,0,0,0
1258,'2025/06/30 16:24:53:790',57,0.221924,0,0,0,0,0.251895,0,-0.246759,0,0.009815,-0.009363,0,0,-0.008008,0,0,-0.008007,0,0,-0.008008,0,0,0,0,0,0,0,1,0,0,0,0,0,0,0
1259,'2025/06/30 16:24:53:796',57,0.221924,0,0,0,0,0.251895,0,-0.246759,0,0.009815,-0.009363,0,0,-0.008008,0,0,-0.008007,0,0,-0.008008,0,0,0,0,0,0,0,1,0,0,0,0,0,0,0
1260,'2025/06/30 16:24:53:802',57,0.221924,0,0,0,0,0.251895,0,-0.246759,0,0.009815,-0.009363,0,0,-0.008008,0,0,-0.008007,0,0,-0.008008,0,0,0,0,0,0,0,1,0,0,0,0,0,0,0
1261,'2025/06/30 16:24:53:807',57,0.221924,0,0,0,0,0.251895,0,-0.246759,0,0.009815,-0.009363,0,0,-0.008008,0,0,-0.008007,0,0,-0.008008,0,0,0,0,0,0,0,1,0,0,0,0,0,0,0
1262,'2025/06/30 16:24:53:811',57,0.221924,0,0,0,0,0.251895,0,-0.246759,0,0.009815,-0.009363,0,0,-0.008008,0,0,-0.008007,0,0,-0.008008,0,0,0,0,0,0,0,1,0,0,0,0,0,0,0
1263,'2025/06/30 16:24:53:818',57,0.221924,0,0,0,0,0.251895,0,-0.246759,0,0.009815,-0.009363,0,0,-0.008008,0,0,-0.008007,0,0,-0.008008,0,0,0,0,0,0,0,1,0,0,0,0,0,0,0
1264,'2025/06/30 16:24:53:824',57,0.221924,0,0,0,0,0.251895,0,-0.246759,0,0.009815,-0.009363,0,0,-0.008008,0,0,-0.008007,0,0,-0.008008,0,0,0,0,0,0,0,1,0,0,0,0,0,0,0
1265,'2025/06/30 16:24:53:829',57,0.221924,0,0,0,0,0.251895,0,-0.246759,0,0.009815,-0.009363,0,0,-0.008008,0,0,-0.008007,0,0,-0.008008,0,0,0,0,0,0,0,1,0,0,0,0,0,0,0
1266,'2025/06/30 16:24:53:834',57,0.221924,0,0,0,0,0.251895,0,-0.246759,0,0.009815,-0.009363,0,0,-0.008008,0,0,-0.008007,0,0,-0.008008,0,0,0,0,0,0,0,1,0,0,0,0,0,0,0
1267,'2025/06/30 16:24:53:840',57,0.221924,0,0,0,0,0.251895,0,-0.246759,0,0.009815,-0.009363,0,0,-0.008008,0,0,-0.008007,0,0,-0.008008,0,0,0,0,0,0,0,1,0,0,0,0,0,0,0
1268,'2025/06/30 16:24:53:846',57,0.221924,0,0,0,0,0.251895,0,-0.246759,0,0.009815,-0.009363,0,0,-0.008008,0,0,-0.008007,0,0,-0.008008,0,0,0,0,0,0,0,1,0,0,0,0,0,0,0
1269,'2025/06/30 16:24:53:852',57,0.221924,0,0,0,0,0.251895,0,-0.246759,0,0.009815,-0.009363,0,0,-0.008008,0,0,-0.008007,0,0,-0.008008,0,0,0,0,0,0,0,1,0,0,0,0,0,0,0
1270,'2025/06/30 16:24:53:856',57,0.221924,0,0,0,0,0.251895,0,-0.246759,0,0.009815,-0.009363,0,0,-0.008008,0,0,-0.008007,0,0,-0.008008,0,0,0,0,0,0,0,1,0,0,0,0,0,0,0
1271,'2025/06/30 16:24:59:761',58,0.221924,-0.032048,0,0,0.03358,0.251895,0,-0.246759,0.004087,-0.004264,0.02206,0,0,-0.008008,0,0,-0.008007,0.004811,0,-0.041839,0,0,0,0,0,0,0,1,0,0,0,0,0,0,0
1272,'2025/06/30 16:24:59:766',58,0.221924,-0.032048,0,0,0.03358,0.251895,0,-0.246759,0.004087,-0.004264,0.02206,0,0,-0.008008,0,0,-0.008007,0.004811,0,-0.041839,0,0,0,0,0,0,0,1,0,0,0,0,0,0,0
1273,'2025/06/30 16:24:59:772',58,0.221924,-0.032048,0,0,0.03358,0.251895,0,-0.246759,0.004087,-0.004264,0.02206,0,0,-0.008008,0,0,-0.008007,0.004811,0,-0.041839,0,0,0,0,0,0,0,1,0,0,0,0,0,0,0
1274,'2025/06/30 16:24:59:776',58,0.221924,-0.032048,0,0,0.03358,0.251895,0,-0.246759,0.004087,-0.004264,0.02206,0,0,-0.008008,0,0,-0.008007,0.004811,0,-0.041839,0,0,0,0,0,0,0,1,0,0,0,0,0,0,0
1275,'2025/06/30 16:24:59:782',58,0.221924,-0.032048,0,0,0.03358,0.251895,0,-0.246759,0.004087,-0.004264,0.02206,0,0,-0.008008,0,0,-0.008007,0.004811,0,-0.041839,0,0,0,0,0,0,0,1,0,0,0,0,0,0,0
1276,'2025/06/30 16:24:59:787',58,0.221924,-0.032048,0,0,0.03358,0.251895,0,-0.246759,0.004087,-0.004264,0.02206,0,0,-0.008008,0,0,-0.008007,0.004811,0,-0.041839,0,0,0,0,0,0,0,1,0,0,0,0,0,0,0
1277,'2025/06/30 16:24:59:791',58,0.221924,-0.032048,0,0,0.03358,0.251895,0,-0.246759,0.004087,-0.004264,0.02206,0,0,-0.008008,0,0,-0.008007,0.004811,0,-0.041839,0,0,0,0,0,0,0,1,0,0,0,0,0,0,0
1278,'2025/06/30 16:24:59:796',58,0.221924,-0.032048,0,0,0.03358,0.251895,0,-0.246759,0.004087,-0.004264,0.02206,0,0,-0.008008,0,0,-0.008007,0.004811,0,-0.041839,0,0,0,0,0,0,0,1,0,0,0,0,0,0,0
1279,'2025/06/30 16:24:59:803',58,0.221924,-0.032048,0,0,0.03358,0.251895,0,-0.246759,0.004087,-0.004264,0.02206,0,0,-0.008008,0,0,-0.008007,0.004811,0,-0.041839,0,0,0,0,0,0,0,1,0,0,0,0,0,0,0
1280,'2025/06/30 16:24:59:808',58,0.221924,-0.032048,0,0,0.03358,0.251895,0,-0.246759,0.004087,-0.004264,0.02206,0,0,-0.008008,0,0,-0.008007,0.004811,0,-0.041839,0,0,0,0,0,0,0,1,0,0,0,0,0,0,0
1281,'2025/06/30 16:24:59:813',58,0.221924,-0.032048,0,0,0.03358,0.251895,0,-0.246759,0.004087,-0.004264,0.02206,0,0,-0.008008,0,0,-0.008007,0.004811,0,-0.041839,0,0,0,0,0,0,0,1,0,0,0,0,0,0,0
1282,'2025/06/30 16:24:59:818',58,0.221924,-0.032048,0,0,0.03358,0.251895,0,-0.246759,0.004087,-0.004264,0.02206,0,0,-0.008008,0,0,-0.008007,0.004811,0,-0.041839,0,0,0,0,0,0,0,1,0,0,0,0,0,0,0
1283,'2025/06/30 16:24:59:823',58,0.221924,-0.032048,0,0,0.03358,0.251895,0,-0.246759,0.004087,-0.004264,0.02206,0,0,-0.008008,0,0,-0.008007,0.004811,0,-0.041839,0,0,0,0,0,0,0,1,0,0,0,0,0,0,0
1284,'2025/06/30 16:24:59:827',58,0.221924,-0.032048,0,0,0.03358,0.251895,0,-0.246759,0.004087,-0.004264,0.02206,0,0,-0.008008,0,0,-0.008007,0.004811,0,-0.041839,0,0,0,0,0,0,0,1,0,0,0,0,0,0,0
1285,'2025/06/30 16:24:59:833',58,0.221924,-0.032048,0,0,0.03358,0.251895,0,-0.246759,0.004087,-0.004264,0.02206,0,0,-0.008008,0,0,-0.008007,0.004811,0,-0.041839,0,0,0,0,0,0,0,1,0,0,0,0,0,0,0
1286,'2025/06/30 16:24:59:838',58,0.221924,-0.032048,0,0,0.03358,0.251895,0,-0.246759,0.004087,-0.004264,0.02206,0,0,-0.008008,0,0,-0.008007,0.004811,0,-0.041839,0,0,0,0,0,0,0,1,0,0,0,0,0,0,0
1287,'2025/06/30 16:24:59:844',58,0.221924,-0.032048,0,0,0.03358,0.251895,0,-0.246759,0.004087,-0.004264,0.02206,0,0,-0.008008,0,0,-0.008007,0.004811,0,-0.041839,0,0,0,0,0,0,0,1,0,0,0,0,0,0,0
1288,'2025/06/30 16:24:59:850',58,0.221924,-0.032048,0,0,0.03358,0.251895,0,-0.246759,0.004087,-0.004264,0.02206,0,0,-0.008008,0,0,-0.008007,0.004811,0,-0.041839,0,0,0,0,0,0,0,1,0,0,0,0,0,0,0
1289,'2025/06/30 16:24:59:856',58,0.221924,-0.032048,0,0,0.03358,0.251895,0,-0.246759,0.004087,-0.004264,0.02206,0,0,-0.008008,0,0,-0.008007,0.004811,0,-0.041839,0,0,0,0,0,0,0,1,0,0,0,0,0,0,0
1290,'2025/06/30 16:24:59:860',58,0.221924,-0.032048,0,0,0.03358,0.251895,0,-0.246759,0.004087,-0.004264,0.02206,0,0,-0.008008,0,0,-0.008007,0.004811,0,-0.041839,0,0,0,0,0,0,0,1,0,0,0,0,0,0,0
1291,'2025/06/30 16:24:59:867',58,0.221924,-0.032048,0,0,0.03358,0.251895,0,-0.246759,0.004087,-0.004264,0.02206,0,0,-0.008008,0,0,-0.008007,0.004811,0,-0.041839,0,0,0,0,0,0,0,1,0,0,0,0,0,0,0
1292,'2025/06/30 16:24:59:871',58,0.221924,-0.032048,0,0,0.03358,0.251895,0,-0.246759,0.004087,-0.004264,0.02206,0,0,-0.008008,0,0,-0.008007,0.004811,0,-0.041839,0,0,0,0,0,0,0,1,0,0,0,0,0,0,0
1293,'2025/06/30 16:24:59:876',58,0.221924,-0.032048,0,0,0.03358,0.251895,0,-0.246759,0.004087,-0.004264,0.02206,0,0,-0.008008,0,0,-0.008007,0.004811,0,-0.041839,0,0,0,0,0,0,0,1,0,0,0,0,0,0,0
1294,'2025/06/30 16:24:59:881',58,0.221924,-0.032048,0,0,0.03358,0.251895,0,-0.246759,0.004087,-0.004264,0.02206,0,0,-0.008008,0,0,-0.008007,0.004811,0,-0.041839,0,0,0,0,0,0,0,1,0,0,0,0,0,0,0
1295,'2025/06/30 16:24:59:886',58,0.221924,-0.032048,0,0,0.03358,0.251895,0,-0.246759,0.004087,-0.004264,0.02206,0,0,-0.008008,0,0,-0.008007,0.004811,0,-0.041839,0,0,0,0,0,0,0,1,0,0,0,0,0,0,0
1296,'2025/06/30 16:25:02:821',59,0.186782,-0.032048,0,0,0.03358,0.229143,0,-0.210199,0.004087,-0.004264,0.02206,0,0,-0.008008,0,0,-0.008007,0.004811,0,-0.041839,0,0,0,0,0,0,0,1,0,0,0,0,0,0,0
1297,'2025/06/30 16:25:02:827',59,0.186782,-0.032048,0,0,0.03358,0.229143,0,-0.210199,0.004087,-0.004264,0.02206,0,0,-0.008008,0,0,-0.008007,0.004811,0,-0.041839,0,0,0,0,0,0,0,1,0,0,0,0,0,0,0
1298,'2025/06/30 16:25:02:832',59,0.186782,-0.032048,0,0,0.03358,0.229143,0,-0.210199,0.004087,-0.004264,0.02206,0,0,-0.008008,0,0,-0.008007,0.004811,0,-0.041839,0,0,0,0,0,0,0,1,0,0,0,0,0,0,0
1299,'2025/06/30 16:25:02:837',59,0.186782,-0.032048,0,0,0.03358,0.229143,0,-0.210199,0.004087,-0.004264,0.02206,0,0,-0.008008,0,0,-0.008007,0.004811,0,-0.041839,0,0,0,0,0,0,0,1,0,0,0,0,0,0,0
1300,'2025/06/30 16:25:02:842',59,0.186782,-0.032048,0,0,0.03358,0.229143,0,-0.210199,0.004087,-0.004264,0.02206,0,0,-0.008008,0,0,-0.008007,0.004811,0,-0.041839,0,0,0,0,0,0,0,1,0,0,0,0,0,0,0
1301,'2025/06/30 16:25:02:846',59,0.186782,-0.032048,0,0,0.03358,0.229143,0,-0.210199,0.004087,-0.004264,0.02206,0,0,-0.008008,0,0,-0.008007,0.004811,0,-0.041839,0,0,0,0,0,0,0,1,0,0,0,0,0,0,0
1302,'2025/06/30 16:25:02:851',59,0.186782,-0.032048,0,0,0.03358,0.229143,0,-0.210199,0.004087,-0.004264,0.02206,0,0,-0.008008,0,0,-0.008007,0.004811,0,-0.041839,0,0,0,0,0,0,0,1,0,0,0,0,0,0,0
1303,'2025/06/30 16:25:02:859',59,0.186782,-0.032048,0,0,0.03358,0.229143,0,-0.210199,0.004087,-0.004264,0.02206,0,0,-0.008008,0,0,-0.008007,0.004811,0,-0.041839,0,0,0,0,0,0,0,1,0,0,0,0,0,0,0
1304,'2025/06/30 16:25:02:864',59,0.186782,-0.032048,0,0,0.03358,0.229143,0,-0.210199,0.004087,-0.004264,0.02206,0,0,-0.008008,0,0,-0.008007,0.004811,0,-0.041839,0,0,0,0,0,0,0,1,0,0,0,0,0,0,0
1305,'2025/06/30 16:25:02:869',59,0.186782,-0.032048,0,0,0.03358,0.229143,0,-0.210199,0.004087,-0.004264,0.02206,0,0,-0.008008,0,0,-0.008007,0.004811,0,-0.041839,0,0,0,0,0,0,0,1,0,0,0,0,0,0,0
1306,'2025/06/30 16:25:02:873',59,0.186782,-0.032048,0,0,0.03358,0.229143,0,-0.210199,0.004087,-0.004264,0.02206,0,0,-0.008008,0,0,-0.008007,0.004811,0,-0.041839,0,0,0,0,0,0,0,1,0,0,0,0,0,0,0
1307,'2025/06/30 16:25:02:880',59,0.186782,-0.032048,0,0,0.03358,0.229143,0,-0.210199,0.004087,-0.004264,0.02206,0,0,-0.008008,0,0,-0.008007,0.004811,0,-0.041839,0,0,0,0,0,0,0,1,0,0,0,0,0,0,0
1308,'2025/06/30 16:25:02:884',59,0.186782,-0.032048,0,0,0.03358,0.229143,0,-0.210199,0.004087,-0.004264,0.02206,0,0,-0.008008,0,0,-0.008007,0.004811,0,-0.041839,0,0,0,0,0,0,0,1,0,0,0,0,0,0,0
1309,'2025/06/30 16:25:02:890',59,0.186782,-0.032048,0,0,0.03358,0.229143,0,-0.210199,0.004087,-0.004264,0.02206,0,0,-0.008008,0,0,-0.008007,0.004811,0,-0.041839,0,0,0,0,0,0,0,1,0,0,0,0,0,0,0
1310,'2025/06/30 16:25:02:895',59,0.186782,-0.032048,0,0,0.03358,0.229143,0,-0.210199,0.004087,-0.004264,0.02206,0,0,-0.008008,0,0,-0.008007,0.004811,0,-0.041839,0,0,0,0,0,0,0,1,0,0,0,0,0,0,0
1311,'2025/06/30 16:25:02:900',59,0.186782,-0.032048,0,0,0.03358,0.229143,0,-0.210199,0.004087,-0.004264,0.02206,0,0,-0.008008,0,0,-0.008007,0.004811,0,-0.041839,0,0,0,0,0,0,0,1,0,0,0,0,0,0,0
1312,'2025/06/30 16:25:02:906',59,0.186782,-0.032048,0,0,0.03358,0.229143,0,-0.210199,0.004087,-0.004264,0.02206,0,0,-0.008008,0,0,-0.008007,0.004811,0,-0.041839,0,0,0,0,0,0,0,1,0,0,0,0,0,0,0
1313,'2025/06/30 16:25:02:911',59,0.186782,-0.032048,0,0,0.03358,0.229143,0,-0.210199,0.004087,-0.004264,0.02206,0,0,-0.008008,0,0,-0.008007,0.004811,0,-0.041839,0,0,0,0,0,0,0,1,0,0,0,0,0,0,0
1314,'2025/06/30 16:25:02:916',59,0.186782,-0.032048,0,0,0.03358,0.229143,0,-0.210199,0.004087,-0.004264,0.02206,0,0,-0.008008,0,0,-0.008007,0.004811,0,-0.041839,0,0,0,0,0,0,0,1,0,0,0,0,0,0,0
1315,'2025/06/30 16:25:02:922',59,0.186782,-0.032048,0,0,0.03358,0.229143,0,-0.210199,0.004087,-0.004264,0.02206,0,0,-0.008008,0,0,-0.008007,0.004811,0,-0.041839,0,0,0,0,0,0,0,1,0,0,0,0,0,0,0
1316,'2025/06/30 16:25:02:927',59,0.186782,-0.032048,0,0,0.03358,0.229143,0,-0.210199,0.004087,-0.004264,0.02206,0,0,-0.008008,0,0,-0.008007,0.004811,0,-0.041839,0,0,0,0,0,0,0,1,0,0,0,0,0,0,0
1317,'2025/06/30 16:25:02:932',59,0.186782,-0.032048,0,0,0.03358,0.229143,0,-0.210199,0.004087,-0.004264,0.02206,0,0,-0.008008,0,0,-0.008007,0.004811,0,-0.041839,0,0,0,0,0,0,0,1,0,0,0,0,0,0,0
1318,'2025/06/30 16:25:02:937',59,0.186782,-0.032048,0,0,0.03358,0.229143,0,-0.210199,0.004087,-0.004264,0.02206,0,0,-0.008008,0,0,-0.008007,0.004811,0,-0.041839,0,0,0,0,0,0,0,1,0,0,0,0,0,0,0
1319,'2025/06/30 16:25:02:942',59,0.186782,-0.032048,0,0,0.03358,0.229143,0,-0.210199,0.004087,-0.004264,0.02206,0,0,-0.008008,0,0,-0.008007,0.004811,0,-0.041839,0,0,0,0,0,0,0,1,0,0,0,0,0,0,0
1320,'2025/06/30 16:25:02:947',59,0.186782,-0.032048,0,0,0.03358,0.229143,0,-0.210199,0.004087,-0.004264,0.02206,0,0,-0.008008,0,0,-0.008007,0.004811,0,-0.041839,0,0,0,0,0,0,0,1,0,0,0,0,0,0,0
1321,'2025/06/30 16:25:04:499',60,0.269661,-0.032048,0,0,0.03358,0.250843,0,-0.294185,0.004087,-0.004264,0.02206,0,0,-0.008008,0,0,-0.008007,0.004811,0,-0.041839,0,0,0,0,0,0,0,1,0,0,0,0,0,0,0
1322,'2025/06/30 16:25:04:503',60,0.269661,-0.032048,0,0,0.03358,0.250843,0,-0.294185,0.004087,-0.004264,0.02206,0,0,-0.008008,0,0,-0.008007,0.004811,0,-0.041839,0,0,0,0,0,0,0,1,0,0,0,0,0,0,0
1323,'2025/06/30 16:25:04:508',60,0.269661,-0.032048,0,0,0.03358,0.250843,0,-0.294185,0.004087,-0.004264,0.02206,0,0,-0.008008,0,0,-0.008007,0.004811,0,-0.041839,0,0,0,0,0,0,0,1,0,0,0,0,0,0,0
1324,'2025/06/30 16:25:04:512',60,0.269661,-0.032048,0,0,0.03358,0.250843,0,-0.294185,0.004087,-0.004264,0.02206,0,0,-0.008008,0,0,-0.008007,0.004811,0,-0.041839,0,0,0,0,0,0,0,1,0,0,0,0,0,0,0
1325,'2025/06/30 16:25:04:517',60,0.269661,-0.032048,0,0,0.03358,0.250843,0,-0.294185,0.004087,-0.004264,0.02206,0,0,-0.008008,0,0,-0.008007,0.004811,0,-0.041839,0,0,0,0,0,0,0,1,0,0,0,0,0,0,0
1326,'2025/06/30 16:25:04:522',60,0.269661,-0.032048,0,0,0.03358,0.250843,0,-0.294185,0.004087,-0.004264,0.02206,0,0,-0.008008,0,0,-0.008007,0.004811,0,-0.041839,0,0,0,0,0,0,0,1,0,0,0,0,0,0,0
1327,'2025/06/30 16:25:04:527',60,0.269661,-0.032048,0,0,0.03358,0.250843,0,-0.294185,0.004087,-0.004264,0.02206,0,0,-0.008008,0,0,-0.008007,0.004811,0,-0.041839,0,0,0,0,0,0,0,1,0,0,0,0,0,0,0
1328,'2025/06/30 16:25:04:533',60,0.269661,-0.032048,0,0,0.03358,0.250843,0,-0.294185,0.004087,-0.004264,0.02206,0,0,-0.008008,0,0,-0.008007,0.004811,0,-0.041839,0,0,0,0,0,0,0,1,0,0,0,0,0,0,0
1329,'2025/06/30 16:25:04:539',60,0.269661,-0.032048,0,0,0.03358,0.250843,0,-0.294185,0.004087,-0.004264,0.02206,0,0,-0.008008,0,0,-0.008007,0.004811,0,-0.041839,0,0,0,0,0,0,0,1,0,0,0,0,0,0,0
1330,'2025/06/30 16:25:04:546',60,0.269661,-0.032048,0,0,0.03358,0.250843,0,-0.294185,0.004087,-0.004264,0.02206,0,0,-0.008008,0,0,-0.008007,0.004811,0,-0.041839,0,0,0,0,0,0,0,1,0,0,0,0,0,0,0
1331,'2025/06/30 16:25:04:551',60,0.269661,-0.032048,0,0,0.03358,0.250843,0,-0.294185,0.004087,-0.004264,0.02206,0,0,-0.008008,0,0,-0.008007,0.004811,0,-0.041839,0,0,0,0,0,0,0,1,0,0,0,0,0,0,0
1332,'2025/06/30 16:25:04:556',60,0.269661,-0.032048,0,0,0.03358,0.250843,0,-0.294185,0.004087,-0.004264,0.02206,0,0,-0.008008,0,0,-0.008007,0.004811,0,-0.041839,0,0,0,0,0,0,0,1,0,0,0,0,0,0,0
1333,'2025/06/30 16:25:04:561',60,0.269661,-0.032048,0,0,0.03358,0.250843,0,-0.294185,0.004087,-0.004264,0.02206,0,0,-0.008008,0,0,-0.008007,0.004811,0,-0.041839,0,0,0,0,0,0,0,1,0,0,0,0,0,0,0
1334,'2025/06/30 16:25:04:567',60,0.269661,-0.032048,0,0,0.03358,0.250843,0,-0.294185,0.004087,-0.004264,0.02206,0,0,-0.008008,0,0,-0.008007,0.004811,0,-0.041839,0,0,0,0,0,0,0,1,0,0,0,0,0,0,0
1335,'2025/06/30 16:25:04:573',60,0.269661,-0.032048,0,0,0.03358,0.250843,0,-0.294185,0.004087,-0.004264,0.02206,0,0,-0.008008,0,0,-0.008007,0.004811,0,-0.041839,0,0,0,0,0,0,0,1,0,0,0,0,0,0,0
1336,'2025/06/30 16:25:04:580',60,0.269661,-0.032048,0,0,0.03358,0.250843,0,-0.294185,0.004087,-0.004264,0.02206,0,0,-0.008008,0,0,-0.008007,0.004811,0,-0.041839,0,0,0,0,0,0,0,1,0,0,0,0,0,0,0
1337,'2025/06/30 16:25:04:585',60,0.269661,-0.032048,0,0,0.03358,0.250843,0,-0.294185,0.004087,-0.004264,0.02206,0,0,-0.008008,0,0,-0.008007,0.004811,0,-0.041839,0,0,0,0,0,0,0,1,0,0,0,0,0,0,0
1338,'2025/06/30 16:25:04:591',60,0.269661,-0.032048,0,0,0.03358,0.250843,0,-0.294185,0.004087,-0.004264,0.02206,0,0,-0.008008,0,0,-0.008007,0.004811,0,-0.041839,0,0,0,0,0,0,0,1,0,0,0,0,0,0,0
1339,'2025/06/30 16:25:04:596',60,0.269661,-0.032048,0,0,0.03358,0.250843,0,-0.294185,0.004087,-0.004264,0.02206,0,0,-0.008008,0,0,-0.008007,0.004811,0,-0.041839,0,0,0,0,0,0,0,1,0,0,0,0,0,0,0
1340,'2025/06/30 16:25:04:601',60,0.269661,-0.032048,0,0,0.03358,0.250843,0,-0.294185,0.004087,-0.004264,0.02206,0,0,-0.008008,0,0,-0.008007,0.004811,0,-0.041839,0,0,0,0,0,0,0,1,0,0,0,0,0,0,0
1341,'2025/06/30 16:25:04:606',60,0.269661,-0.032048,0,0,0.03358,0.250843,0,-0.294185,0.004087,-0.004264,0.02206,0,0,-0.008008,0,0,-0.008007,0.004811,0,-0.041839,0,0,0,0,0,0,0,1,0,0,0,0,0,0,0
1342,'2025/06/30 16:25:04:612',60,0.269661,-0.032048,0,0,0.03358,0.250843,0,-0.294185,0.004087,-0.004264,0.02206,0,0,-0.008008,0,0,-0.008007,0.004811,0,-0.041839,0,0,0,0,0,0,0,1,0,0,0,0,0,0,0
1343,'2025/06/30 16:25:04:618',60,0.269661,-0.032048,0,0,0.03358,0.250843,0,-0.294185,0.004087,-0.004264,0.02206,0,0,-0.008008,0,0,-0.008007,0.004811,0,-0.041839,0,0,0,0,0,0,0,1,0,0,0,0,0,0,0
1344,'2025/06/30 16:25:04:623',60,0.269661,-0.032048,0,0,0.03358,0.250843,0,-0.294185,0.004087,-0.004264,0.02206,0,0,-0.008008,0,0,-0.008007,0.004811,0,-0.041839,0,0,0,0,0,0,0,1,0,0,0,0,0,0,0
1345,'2025/06/30 16:25:04:629',60,0.269661,-0.032048,0,0,0.03358,0.250843,0,-0.294185,0.004087,-0.004264,0.02206,0,0,-0.008008,0,0,-0.008007,0.004811,0,-0.041839,0,0,0,0,0,0,0,1,0,0,0,0,0,0,0
1346,'2025/06/30 16:25:04:633',60,0.269661,-0.032048,0,0,0.03358,0.250843,0,-0.294185,0.004087,-0.004264,0.02206,0,0,-0.008008,0,0,-0.008007,0.004811,0,-0.041839,0,0,0,0,0,0,0,1,0,0,0,0,0,0,0
1347,'2025/06/30 16:25:06:548',61,0.366925,-0.032048,0,0,0.03358,0.273635,0,-0.392471,0.004087,-0.004264,0.02206,0,0,-0.008008,0,0,-0.008007,0.004811,0,-0.041839,0,0,0,0,0,0,0,1,0,0,0,0,0,0,0
1348,'2025/06/30 16:25:06:552',61,0.366925,-0.032048,0,0,0.03358,0.273635,0,-0.392471,0.004087,-0.004264,0.02206,0,0,-0.008008,0,0,-0.008007,0.004811,0,-0.041839,0,0,0,0,0,0,0,1,0,0,0,0,0,0,0
1349,'2025/06/30 16:25:06:558',61,0.366925,-0.032048,0,0,0.03358,0.273635,0,-0.392471,0.004087,-0.004264,0.02206,0,0,-0.008008,0,0,-0.008007,0.004811,0,-0.041839,0,0,0,0,0,0,0,1,0,0,0,0,0,0,0
1350,'2025/06/30 16:25:06:563',61,0.366925,-0.032048,0,0,0.03358,0.273635,0,-0.392471,0.004087,-0.004264,0.02206,0,0,-0.008008,0,0,-0.008007,0.004811,0,-0.041839,0,0,0,0,0,0,0,1,0,0,0,0,0,0,0
1351,'2025/06/30 16:25:06:567',61,0.366925,-0.032048,0,0,0.03358,0.273635,0,-0.392471,0.004087,-0.004264,0.02206,0,0,-0.008008,0,0,-0.008007,0.004811,0,-0.041839,0,0,0,0,0,0,0,1,0,0,0,0,0,0,0
1352,'2025/06/30 16:25:06:572',61,0.366925,-0.032048,0,0,0.03358,0.273635,0,-0.392471,0.004087,-0.004264,0.02206,0,0,-0.008008,0,0,-0.008007,0.004811,0,-0.041839,0,0,0,0,0,0,0,1,0,0,0,0,0,0,0
1353,'2025/06/30 16:25:06:577',61,0.366925,-0.032048,0,0,0.03358,0.273635,0,-0.392471,0.004087,-0.004264,0.02206,0,0,-0.008008,0,0,-0.008007,0.004811,0,-0.041839,0,0,0,0,0,0,0,1,0,0,0,0,0,0,0
1354,'2025/06/30 16:25:06:582',61,0.366925,-0.032048,0,0,0.03358,0.273635,0,-0.392471,0.004087,-0.004264,0.02206,0,0,-0.008008,0,0,-0.008007,0.004811,0,-0.041839,0,0,0,0,0,0,0,1,0,0,0,0,0,0,0
1355,'2025/06/30 16:25:06:586',61,0.366925,-0.032048,0,0,0.03358,0.273635,0,-0.392471,0.004087,-0.004264,0.02206,0,0,-0.008008,0,0,-0.008007,0.004811,0,-0.041839,0,0,0,0,0,0,0,1,0,0,0,0,0,0,0
1356,'2025/06/30 16:25:06:591',61,0.366925,-0.032048,0,0,0.03358,0.273635,0,-0.392471,0.004087,-0.004264,0.02206,0,0,-0.008008,0,0,-0.008007,0.004811,0,-0.041839,0,0,0,0,0,0,0,1,0,0,0,0,0,0,0
1357,'2025/06/30 16:25:06:596',61,0.366925,-0.032048,0,0,0.03358,0.273635,0,-0.392471,0.004087,-0.004264,0.02206,0,0,-0.008008,0,0,-0.008007,0.004811,0,-0.041839,0,0,0,0,0,0,0,1,0,0,0,0,0,0,0
1358,'2025/06/30 16:25:06:602',61,0.366925,-0.032048,0,0,0.03358,0.273635,0,-0.392471,0.004087,-0.004264,0.02206,0,0,-0.008008,0,0,-0.008007,0.004811,0,-0.041839,0,0,0,0,0,0,0,1,0,0,0,0,0,0,0
1359,'2025/06/30 16:25:06:607',61,0.366925,-0.032048,0,0,0.03358,0.273635,0,-0.392471,0.004087,-0.004264,0.02206,0,0,-0.008008,0,0,-0.008007,0.004811,0,-0.041839,0,0,0,0,0,0,0,1,0,0,0,0,0,0,0
1360,'2025/06/30 16:25:06:613',61,0.366925,-0.032048,0,0,0.03358,0.273635,0,-0.392471,0.004087,-0.004264,0.02206,0,0,-0.008008,0,0,-0.008007,0.004811,0,-0.041839,0,0,0,0,0,0,0,1,0,0,0,0,0,0,0
1361,'2025/06/30 16:25:06:618',61,0.366925,-0.032048,0,0,0.03358,0.273635,0,-0.392471,0.004087,-0.004264,0.02206,0,0,-0.008008,0,0,-0.008007,0.004811,0,-0.041839,0,0,0,0,0,0,0,1,0,0,0,0,0,0,0
1362,'2025/06/30 16:25:06:623',61,0.366925,-0.032048,0,0,0.03358,0.273635,0,-0.392471,0.004087,-0.004264,0.02206,0,0,-0.008008,0,0,-0.008007,0.004811,0,-0.041839,0,0,0,0,0,0,0,1,0,0,0,0,0,0,0
1363,'2025/06/30 16:25:06:629',61,0.366925,-0.032048,0,0,0.03358,0.273635,0,-0.392471,0.004087,-0.004264,0.02206,0,0,-0.008008,0,0,-0.008007,0.004811,0,-0.041839,0,0,0,0,0,0,0,1,0,0,0,0,0,0,0
1364,'2025/06/30 16:25:06:634',61,0.366925,-0.032048,0,0,0.03358,0.273635,0,-0.392471,0.004087,-0.004264,0.02206,0,0,-0.008008,0,0,-0.008007,0.004811,0,-0.041839,0,0,0,0,0,0,0,1,0,0,0,0,0,0,0
1365,'2025/06/30 16:25:06:640',61,0.366925,-0.032048,0,0,0.03358,0.273635,0,-0.392471,0.004087,-0.004264,0.02206,0,0,-0.008008,0,0,-0.008007,0.004811,0,-0.041839,0,0,0,0,0,0,0,1,0,0,0,0,0,0,0
1366,'2025/06/30 16:25:06:646',61,0.366925,-0.032048,0,0,0.03358,0.273635,0,-0.392471,0.004087,-0.004264,0.02206,0,0,-0.008008,0,0,-0.008007,0.004811,0,-0.041839,0,0,0,0,0,0,0,1,0,0,0,0,0,0,0
1367,'2025/06/30 16:25:06:651',61,0.366925,-0.032048,0,0,0.03358,0.273635,0,-0.392471,0.004087,-0.004264,0.02206,0,0,-0.008008,0,0,-0.008007,0.004811,0,-0.041839,0,0,0,0,0,0,0,1,0,0,0,0,0,0,0
1368,'2025/06/30 16:25:06:659',61,0.366925,-0.032048,0,0,0.03358,0.273635,0,-0.392471,0.004087,-0.004264,0.02206,0,0,-0.008008,0,0,-0.008007,0.004811,0,-0.041839,0,0,0,0,0,0,0,1,0,0,0,0,0,0,0
1369,'2025/06/30 16:25:06:664',61,0.366925,-0.032048,0,0,0.03358,0.273635,0,-0.392471,0.004087,-0.004264,0.02206,0,0,-0.008008,0,0,-0.008007,0.004811,0,-0.041839,0,0,0,0,0,0,0,1,0,0,0,0,0,0,0
1370,'2025/06/30 16:25:06:671',61,0.366925,-0.032048,0,0,0.03358,0.273635,0,-0.392471,0.004087,-0.004264,0.02206,0,0,-0.008008,0,0,-0.008007,0.004811,0,-0.041839,0,0,0,0,0,0,0,1,0,0,0,0,0,0,0
1371,'2025/06/30 16:25:06:676',61,0.366925,-0.032048,0,0,0.03358,0.273635,0,-0.392471,0.004087,-0.004264,0.02206,0,0,-0.008008,0,0,-0.008007,0.004811,0,-0.041839,0,0,0,0,0,0,0,1,0,0,0,0,0,0,0
1372,'2025/06/30 16:25:06:682',61,0.366925,-0.032048,0,0,0.03358,0.273635,0,-0.392471,0.004087,-0.004264,0.02206,0,0,-0.008008,0,0,-0.008007,0.004811,0,-0.041839,0,0,0,0,0,0,0,1,0,0,0,0,0,0,0
1373,'2025/06/30 16:25:11:515',62,0.366925,-0.008586,0,0,0.03358,0.273635,0,-0.392471,0.007214,-0.004264,-0.001568,0,0,-0.008008,0,0,-0.008007,0.004811,0,-0.041839,0,0,0,0,0,0,0,1,0,0,0,0,0,0,0
1374,'2025/06/30 16:25:11:521',62,0.366925,-0.008586,0,0,0.03358,0.273635,0,-0.392471,0.007214,-0.004264,-0.001568,0,0,-0.008008,0,0,-0.008007,0.004811,0,-0.041839,0,0,0,0,0,0,0,1,0,0,0,0,0,0,0
1375,'2025/06/30 16:25:11:526',62,0.366925,-0.008586,0,0,0.03358,0.273635,0,-0.392471,0.007214,-0.004264,-0.001568,0,0,-0.008008,0,0,-0.008007,0.004811,0,-0.041839,0,0,0,0,0,0,0,1,0,0,0,0,0,0,0
1376,'2025/06/30 16:25:11:531',62,0.366925,-0.008586,0,0,0.03358,0.273635,0,-0.392471,0.007214,-0.004264,-0.001568,0,0,-0.008008,0,0,-0.008007,0.004811,0,-0.041839,0,0,0,0,0,0,0,1,0,0,0,0,0,0,0
1377,'2025/06/30 16:25:11:536',62,0.366925,-0.008586,0,0,0.03358,0.273635,0,-0.392471,0.007214,-0.004264,-0.001568,0,0,-0.008008,0,0,-0.008007,0.004811,0,-0.041839,0,0,0,0,0,0,0,1,0,0,0,0,0,0,0
1378,'2025/06/30 16:25:11:540',62,0.366925,-0.008586,0,0,0.03358,0.273635,0,-0.392471,0.007214,-0.004264,-0.001568,0,0,-0.008008,0,0,-0.008007,0.004811,0,-0.041839,0,0,0,0,0,0,0,1,0,0,0,0,0,0,0
1379,'2025/06/30 16:25:11:545',62,0.366925,-0.008586,0,0,0.03358,0.273635,0,-0.392471,0.007214,-0.004264,-0.001568,0,0,-0.008008,0,0,-0.008007,0.004811,0,-0.041839,0,0,0,0,0,0,0,1,0,0,0,0,0,0,0
1380,'2025/06/30 16:25:11:551',62,0.366925,-0.008586,0,0,0.03358,0.273635,0,-0.392471,0.007214,-0.004264,-0.001568,0,0,-0.008008,0,0,-0.008007,0.004811,0,-0.041839,0,0,0,0,0,0,0,1,0,0,0,0,0,0,0
1381,'2025/06/30 16:25:11:557',62,0.366925,-0.008586,0,0,0.03358,0.273635,0,-0.392471,0.007214,-0.004264,-0.001568,0,0,-0.008008,0,0,-0.008007,0.004811,0,-0.041839,0,0,0,0,0,0,0,1,0,0,0,0,0,0,0
1382,'2025/06/30 16:25:11:561',62,0.366925,-0.008586,0,0,0.03358,0.273635,0,-0.392471,0.007214,-0.004264,-0.001568,0,0,-0.008008,0,0,-0.008007,0.004811,0,-0.041839,0,0,0,0,0,0,0,1,0,0,0,0,0,0,0
1383,'2025/06/30 16:25:11:567',62,0.366925,-0.008586,0,0,0.03358,0.273635,0,-0.392471,0.007214,-0.004264,-0.001568,0,0,-0.008008,0,0,-0.008007,0.004811,0,-0.041839,0,0,0,0,0,0,0,1,0,0,0,0,0,0,0
1384,'2025/06/30 16:25:11:573',62,0.366925,-0.008586,0,0,0.03358,0.273635,0,-0.392471,0.007214,-0.004264,-0.001568,0,0,-0.008008,0,0,-0.008007,0.004811,0,-0.041839,0,0,0,0,0,0,0,1,0,0,0,0,0,0,0
1385,'2025/06/30 16:25:11:578',62,0.366925,-0.008586,0,0,0.03358,0.273635,0,-0.392471,0.007214,-0.004264,-0.001568,0,0,-0.008008,0,0,-0.008007,0.004811,0,-0.041839,0,0,0,0,0,0,0,1,0,0,0,0,0,0,0
1386,'2025/06/30 16:25:11:583',62,0.366925,-0.008586,0,0,0.03358,0.273635,0,-0.392471,0.007214,-0.004264,-0.001568,0,0,-0.008008,0,0,-0.008007,0.004811,0,-0.041839,0,0,0,0,0,0,0,1,0,0,0,0,0,0,0
1387,'2025/06/30 16:25:11:589',62,0.366925,-0.008586,0,0,0.03358,0.273635,0,-0.392471,0.007214,-0.004264,-0.001568,0,0,-0.008008,0,0,-0.008007,0.004811,0,-0.041839,0,0,0,0,0,0,0,1,0,0,0,0,0,0,0
1388,'2025/06/30 16:25:11:593',62,0.366925,-0.008586,0,0,0.03358,0.273635,0,-0.392471,0.007214,-0.004264,-0.001568,0,0,-0.008008,0,0,-0.008007,0.004811,0,-0.041839,0,0,0,0,0,0,0,1,0,0,0,0,0,0,0
1389,'2025/06/30 16:25:11:599',62,0.366925,-0.008586,0,0,0.03358,0.273635,0,-0.392471,0.007214,-0.004264,-0.001568,0,0,-0.008008,0,0,-0.008007,0.004811,0,-0.041839,0,0,0,0,0,0,0,1,0,0,0,0,0,0,0
1390,'2025/06/30 16:25:11:604',62,0.366925,-0.008586,0,0,0.03358,0.273635,0,-0.392471,0.007214,-0.004264,-0.001568,0,0,-0.008008,0,0,-0.008007,0.004811,0,-0.041839,0,0,0,0,0,0,0,1,0,0,0,0,0,0,0
1391,'2025/06/30 16:25:11:608',62,0.366925,-0.008586,0,0,0.03358,0.273635,0,-0.392471,0.007214,-0.004264,-0.001568,0,0,-0.008008,0,0,-0.008007,0.004811,0,-0.041839,0,0,0,0,0,0,0,1,0,0,0,0,0,0,0
1392,'2025/06/30 16:25:11:612',62,0.366925,-0.008586,0,0,0.03358,0.273635,0,-0.392471,0.007214,-0.004264,-0.001568,0,0,-0.008008,0,0,-0.008007,0.004811,0,-0.041839,0,0,0,0,0,0,0,1,0,0,0,0,0,0,0
1393,'2025/06/30 16:25:11:619',62,0.366925,-0.008586,0,0,0.03358,0.273635,0,-0.392471,0.007214,-0.004264,-0.001568,0,0,-0.008008,0,0,-0.008007,0.004811,0,-0.041839,0,0,0,0,0,0,0,1,0,0,0,0,0,0,0
1394,'2025/06/30 16:25:11:624',62,0.366925,-0.008586,0,0,0.03358,0.273635,0,-0.392471,0.007214,-0.004264,-0.001568,0,0,-0.008008,0,0,-0.008007,0.004811,0,-0.041839,0,0,0,0,0,0,0,1,0,0,0,0,0,0,0
1395,'2025/06/30 16:25:11:628',62,0.366925,-0.008586,0,0,0.03358,0.273635,0,-0.392471,0.007214,-0.004264,-0.001568,0,0,-0.008008,0,0,-0.008007,0.004811,0,-0.041839,0,0,0,0,0,0,0,1,0,0,0,0,0,0,0
1396,'2025/06/30 16:25:11:633',62,0.366925,-0.008586,0,0,0.03358,0.273635,0,-0.392471,0.007214,-0.004264,-0.001568,0,0,-0.008008,0,0,-0.008007,0.004811,0,-0.041839,0,0,0,0,0,0,0,1,0,0,0,0,0,0,0
1397,'2025/06/30 16:25:11:638',62,0.366925,-0.008586,0,0,0.03358,0.273635,0,-0.392471,0.007214,-0.004264,-0.001568,0,0,-0.008008,0,0,-0.008007,0.004811,0,-0.041839,0,0,0,0,0,0,0,1,0,0,0,0,0,0,0
1398,'2025/06/30 16:25:11:642',62,0.366925,-0.008586,0,0,0.03358,0.273635,0,-0.392471,0.007214,-0.004264,-0.001568,0,0,-0.008008,0,0,-0.008007,0.004811,0,-0.041839,0,0,0,0,0,0,0,1,0,0,0,0,0,0,0
1399,'2025/06/30 16:25:11:647',62,0.366925,-0.008586,0,0,0.03358,0.273635,0,-0.392471,0.007214,-0.004264,-0.001568,0,0,-0.008008,0,0,-0.008007,0.004811,0,-0.041839,0,0,0,0,0,0,0,1,0,0,0,0,0,0,0
1400,'2025/06/30 16:25:19:157',63,0.366925,-0.008586,0.025963,0.031476,0.057249,0.273635,0,-0.392471,0.007214,-0.004264,-0.001568,0.00372,0,-0.034166,0.00451,0,-0.03972,0.008202,0,-0.06568,0,0,0,0,0,0,0,1,0,0,0,0,0,0,0
1401,'2025/06/30 16:25:19:163',63,0.366925,-0.008586,0.025963,0.031476,0.057249,0.273635,0,-0.392471,0.007214,-0.004264,-0.001568,0.00372,0,-0.034166,0.00451,0,-0.03972,0.008202,0,-0.06568,0,0,0,0,0,0,0,1,0,0,0,0,0,0,0
1402,'2025/06/30 16:25:19:170',63,0.366925,-0.008586,0.025963,0.031476,0.057249,0.273635,0,-0.392471,0.007214,-0.004264,-0.001568,0.00372,0,-0.034166,0.00451,0,-0.03972,0.008202,0,-0.06568,0,0,0,0,0,0,0,1,0,0,0,0,0,0,0
1403,'2025/06/30 16:25:19:175',63,0.366925,-0.008586,0.025963,0.031476,0.057249,0.273635,0,-0.392471,0.007214,-0.004264,-0.001568,0.00372,0,-0.034166,0.00451,0,-0.03972,0.008202,0,-0.06568,0,0,0,0,0,0,0,1,0,0,0,0,0,0,0
1404,'2025/06/30 16:25:19:181',63,0.366925,-0.008586,0.025963,0.031476,0.057249,0.273635,0,-0.392471,0.007214,-0.004264,-0.001568,0.00372,0,-0.034166,0.00451,0,-0.03972,0.008202,0,-0.06568,0,0,0,0,0,0,0,1,0,0,0,0,0,0,0
1405,'2025/06/30 16:25:19:186',63,0.366925,-0.008586,0.025963,0.031476,0.057249,0.273635,0,-0.392471,0.007214,-0.004264,-0.001568,0.00372,0,-0.034166,0.00451,0,-0.03972,0.008202,0,-0.06568,0,0,0,0,0,0,0,1,0,0,0,0,0,0,0
1406,'2025/06/30 16:25:19:192',63,0.366925,-0.008586,0.025963,0.031476,0.057249,0.273635,0,-0.392471,0.007214,-0.004264,-0.001568,0.00372,0,-0.034166,0.00451,0,-0.03972,0.008202,0,-0.06568,0,0,0,0,0,0,0,1,0,0,0,0,0,0,0
1407,'2025/06/30 16:25:19:196',63,0.366925,-0.008586,0.025963,0.031476,0.057249,0.273635,0,-0.392471,0.007214,-0.004264,-0.001568,0.00372,0,-0.034166,0.00451,0,-0.03972,0.008202,0,-0.06568,0,0,0,0,0,0,0,1,0,0,0,0,0,0,0
1408,'2025/06/30 16:25:19:202',63,0.366925,-0.008586,0.025963,0.031476,0.057249,0.273635,0,-0.392471,0.007214,-0.004264,-0.001568,0.00372,0,-0.034166,0.00451,0,-0.03972,0.008202,0,-0.06568,0,0,0,0,0,0,0,1,0,0,0,0,0,0,0
1409,'2025/06/30 16:25:19:207',63,0.366925,-0.008586,0.025963,0.031476,0.057249,0.273635,0,-0.392471,0.007214,-0.004264,-0.001568,0.00372,0,-0.034166,0.00451,0,-0.03972,0.008202,0,-0.06568,0,0,0,0,0,0,0,1,0,0,0,0,0,0,0
1410,'2025/06/30 16:25:19:213',63,0.366925,-0.008586,0.025963,0.031476,0.057249,0.273635,0,-0.392471,0.007214,-0.004264,-0.001568,0.00372,0,-0.034166,0.00451,0,-0.03972,0.008202,0,-0.06568,0,0,0,0,0,0,0,1,0,0,0,0,0,0,0
1411,'2025/06/30 16:25:19:219',63,0.366925,-0.008586,0.025963,0.031476,0.057249,0.273635,0,-0.392471,0.007214,-0.004264,-0.001568,0.00372,0,-0.034166,0.00451,0,-0.03972,0.008202,0,-0.06568,0,0,0,0,0,0,0,1,0,0,0,0,0,0,0
1412,'2025/06/30 16:25:19:225',63,0.366925,-0.008586,0.025963,0.031476,0.057249,0.273635,0,-0.392471,0.007214,-0.004264,-0.001568,0.00372,0,-0.034166,0.00451,0,-0.03972,0.008202,0,-0.06568,0,0,0,0,0,0,0,1,0,0,0,0,0,0,0
1413,'2025/06/30 16:25:19:230',63,0.366925,-0.008586,0.025963,0.031476,0.057249,0.273635,0,-0.392471,0.007214,-0.004264,-0.001568,0.00372,0,-0.034166,0.00451,0,-0.03972,0.008202,0,-0.06568,0,0,0,0,0,0,0,1,0,0,0,0,0,0,0
1414,'2025/06/30 16:25:19:234',63,0.366925,-0.008586,0.025963,0.031476,0.057249,0.273635,0,-0.392471,0.007214,-0.004264,-0.001568,0.00372,0,-0.034166,0.00451,0,-0.03972,0.008202,0,-0.06568,0,0,0,0,0,0,0,1,0,0,0,0,0,0,0
1415,'2025/06/30 16:25:19:240',63,0.366925,-0.008586,0.025963,0.031476,0.057249,0.273635,0,-0.392471,0.007214,-0.004264,-0.001568,0.00372,0,-0.034166,0.00451,0,-0.03972,0.008202,0,-0.06568,0,0,0,0,0,0,0,1,0,0,0,0,0,0,0
1416,'2025/06/30 16:25:19:246',63,0.366925,-0.008586,0.025963,0.031476,0.057249,0.273635,0,-0.392471,0.007214,-0.004264,-0.001568,0.00372,0,-0.034166,0.00451,0,-0.03972,0.008202,0,-0.06568,0,0,0,0,0,0,0,1,0,0,0,0,0,0,0
1417,'2025/06/30 16:25:19:250',63,0.366925,-0.008586,0.025963,0.031476,0.057249,0.273635,0,-0.392471,0.007214,-0.004264,-0.001568,0.00372,0,-0.034166,0.00451,0,-0.03972,0.008202,0,-0.06568,0,0,0,0,0,0,0,1,0,0,0,0,0,0,0
1418,'2025/06/30 16:25:19:256',63,0.366925,-0.008586,0.025963,0.031476,0.057249,0.273635,0,-0.392471,0.007214,-0.004264,-0.001568,0.00372,0,-0.034166,0.00451,0,-0.03972,0.008202,0,-0.06568,0,0,0,0,0,0,0,1,0,0,0,0,0,0,0
1419,'2025/06/30 16:25:19:262',63,0.366925,-0.008586,0.025963,0.031476,0.057249,0.273635,0,-0.392471,0.007214,-0.004264,-0.001568,0.00372,0,-0.034166,0.00451,0,-0.03972,0.008202,0,-0.06568,0,0,0,0,0,0,0,1,0,0,0,0,0,0,0
1420,'2025/06/30 16:25:19:267',63,0.366925,-0.008586,0.025963,0.031476,0.057249,0.273635,0,-0.392471,0.007214,-0.004264,-0.001568,0.00372,0,-0.034166,0.00451,0,-0.03972,0.008202,0,-0.06568,0,0,0,0,0,0,0,1,0,0,0,0,0,0,0
1421,'2025/06/30 16:25:19:273',63,0.366925,-0.008586,0.025963,0.031476,0.057249,0.273635,0,-0.392471,0.007214,-0.004264,-0.001568,0.00372,0,-0.034166,0.00451,0,-0.03972,0.008202,0,-0.06568,0,0,0,0,0,0,0,1,0,0,0,0,0,0,0
1422,'2025/06/30 16:25:19:280',63,0.366925,-0.008586,0.025963,0.031476,0.057249,0.273635,0,-0.392471,0.007214,-0.004264,-0.001568,0.00372,0,-0.034166,0.00451,0,-0.03972,0.008202,0,-0.06568,0,0,0,0,0,0,0,1,0,0,0,0,0,0,0
1423,'2025/06/30 16:25:19:285',63,0.366925,-0.008586,0.025963,0.031476,0.057249,0.273635,0,-0.392471,0.007214,-0.004264,-0.001568,0.00372,0,-0.034166,0.00451,0,-0.03972,0.008202,0,-0.06568,0,0,0,0,0,0,0,1,0,0,0,0,0,0,0
1424,'2025/06/30 16:26:06:641',64,0.373885,-0.018923,0,0,0,0.089616,0.318142,0.134377,0.15309,0.72108,0.022605,0,0,-0.008008,0,0,-0.008007,0,0,-0.008008,0,0,0,0,0,0,0,0,1,0,0,0,0,0,0
1425,'2025/06/30 16:26:06:648',64,0.373885,-0.018923,0,0,0,0.089616,0.318142,0.134377,0.15309,0.72108,0.022605,0,0,-0.008008,0,0,-0.008007,0,0,-0.008008,0,0,0,0,0,0,0,0,1,0,0,0,0,0,0
1426,'2025/06/30 16:26:06:652',64,0.373885,-0.018923,0,0,0,0.089616,0.318142,0.134377,0.15309,0.72108,0.022605,0,0,-0.008008,0,0,-0.008007,0,0,-0.008008,0,0,0,0,0,0,0,0,1,0,0,0,0,0,0
1427,'2025/06/30 16:26:06:660',64,0.373885,-0.018923,0,0,0,0.089616,0.318142,0.134377,0.15309,0.72108,0.022605,0,0,-0.008008,0,0,-0.008007,0,0,-0.008008,0,0,0,0,0,0,0,0,1,0,0,0,0,0,0
1428,'2025/06/30 16:26:06:665',64,0.373885,-0.018923,0,0,0,0.089616,0.318142,0.134377,0.15309,0.72108,0.022605,0,0,-0.008008,0,0,-0.008007,0,0,-0.008008,0,0,0,0,0,0,0,0,1,0,0,0,0,0,0
1429,'2025/06/30 16:26:06:672',64,0.373885,-0.018923,0,0,0,0.089616,0.318142,0.134377,0.15309,0.72108,0.022605,0,0,-0.008008,0,0,-0.008007,0,0,-0.008008,0,0,0,0,0,0,0,0,1,0,0,0,0,0,0
1430,'2025/06/30 16:26:06:677',64,0.373885,-0.018923,0,0,0,0.089616,0.318142,0.134377,0.15309,0.72108,0.022605,0,0,-0.008008,0,0,-0.008007,0,0,-0.008008,0,0,0,0,0,0,0,0,1,0,0,0,0,0,0
1431,'2025/06/30 16:26:06:682',64,0.373885,-0.018923,0,0,0,0.089616,0.318142,0.134377,0.15309,0.72108,0.022605,0,0,-0.008008,0,0,-0.008007,0,0,-0.008008,0,0,0,0,0,0,0,0,1,0,0,0,0,0,0
1432,'2025/06/30 16:26:06:687',64,0.373885,-0.018923,0,0,0,0.089616,0.318142,0.134377,0.15309,0.72108,0.022605,0,0,-0.008008,0,0,-0.008007,0,0,-0.008008,0,0,0,0,0,0,0,0,1,0,0,0,0,0,0
1433,'2025/06/30 16:26:06:691',64,0.373885,-0.018923,0,0,0,0.089616,0.318142,0.134377,0.15309,0.72108,0.022605,0,0,-0.008008,0,0,-0.008007,0,0,-0.008008,0,0,0,0,0,0,0,0,1,0,0,0,0,0,0
1434,'2025/06/30 16:26:06:697',64,0.373885,-0.018923,0,0,0,0.089616,0.318142,0.134377,0.15309,0.72108,0.022605,0,0,-0.008008,0,0,-0.008007,0,0,-0.008008,0,0,0,0,0,0,0,0,1,0,0,0,0,0,0
1435,'2025/06/30 16:26:06:702',64,0.373885,-0.018923,0,0,0,0.089616,0.318142,0.134377,0.15309,0.72108,0.022605,0,0,-0.008008,0,0,-0.008007,0,0,-0.008008,0,0,0,0,0,0,0,0,1,0,0,0,0,0,0
1436,'2025/06/30 16:26:06:708',64,0.373885,-0.018923,0,0,0,0.089616,0.318142,0.134377,0.15309,0.72108,0.022605,0,0,-0.008008,0,0,-0.008007,0,0,-0.008008,0,0,0,0,0,0,0,0,1,0,0,0,0,0,0
1437,'2025/06/30 16:26:06:713',64,0.373885,-0.018923,0,0,0,0.089616,0.318142,0.134377,0.15309,0.72108,0.022605,0,0,-0.008008,0,0,-0.008007,0,0,-0.008008,0,0,0,0,0,0,0,0,1,0,0,0,0,0,0
1438,'2025/06/30 16:26:06:719',64,0.373885,-0.018923,0,0,0,0.089616,0.318142,0.134377,0.15309,0.72108,0.022605,0,0,-0.008008,0,0,-0.008007,0,0,-0.008008,0,0,0,0,0,0,0,0,1,0,0,0,0,0,0
1439,'2025/06/30 16:26:06:724',64,0.373885,-0.018923,0,0,0,0.089616,0.318142,0.134377,0.15309,0.72108,0.022605,0,0,-0.008008,0,0,-0.008007,0,0,-0.008008,0,0,0,0,0,0,0,0,1,0,0,0,0,0,0
1440,'2025/06/30 16:26:06:730',64,0.373885,-0.018923,0,0,0,0.089616,0.318142,0.134377,0.15309,0.72108,0.022605,0,0,-0.008008,0,0,-0.008007,0,0,-0.008008,0,0,0,0,0,0,0,0,1,0,0,0,0,0,0
1441,'2025/06/30 16:26:06:736',64,0.373885,-0.018923,0,0,0,0.089616,0.318142,0.134377,0.15309,0.72108,0.022605,0,0,-0.008008,0,0,-0.008007,0,0,-0.008008,0,0,0,0,0,0,0,0,1,0,0,0,0,0,0
1442,'2025/06/30 16:26:06:741',64,0.373885,-0.018923,0,0,0,0.089616,0.318142,0.134377,0.15309,0.72108,0.022605,0,0,-0.008008,0,0,-0.008007,0,0,-0.008008,0,0,0,0,0,0,0,0,1,0,0,0,0,0,0
1443,'2025/06/30 16:26:06:747',64,0.373885,-0.018923,0,0,0,0.089616,0.318142,0.134377,0.15309,0.72108,0.022605,0,0,-0.008008,0,0,-0.008007,0,0,-0.008008,0,0,0,0,0,0,0,0,1,0,0,0,0,0,0
1444,'2025/06/30 16:26:06:753',64,0.373885,-0.018923,0,0,0,0.089616,0.318142,0.134377,0.15309,0.72108,0.022605,0,0,-0.008008,0,0,-0.008007,0,0,-0.008008,0,0,0,0,0,0,0,0,1,0,0,0,0,0,0
1445,'2025/06/30 16:26:06:760',64,0.373885,-0.018923,0,0,0,0.089616,0.318142,0.134377,0.15309,0.72108,0.022605,0,0,-0.008008,0,0,-0.008007,0,0,-0.008008,0,0,0,0,0,0,0,0,1,0,0,0,0,0,0
1446,'2025/06/30 16:26:06:766',64,0.373885,-0.018923,0,0,0,0.089616,0.318142,0.134377,0.15309,0.72108,0.022605,0,0,-0.008008,0,0,-0.008007,0,0,-0.008008,0,0,0,0,0,0,0,0,1,0,0,0,0,0,0
1447,'2025/06/30 16:26:06:772',64,0.373885,-0.018923,0,0,0,0.089616,0.318142,0.134377,0.15309,0.72108,0.022605,0,0,-0.008008,0,0,-0.008007,0,0,-0.008008,0,0,0,0,0,0,0,0,1,0,0,0,0,0,0
1448,'2025/06/30 16:26:20:012',65,0.373885,-0.018923,-0.001641,-0.004299,-0.006797,0.089616,0.318142,0.134377,0.15309,0.72108,0.022605,-0.116468,0.204332,-0.011275,-0.172883,0.312404,-0.013773,-0.156633,0.319009,-0.019032,0,0,0,0,0,0,0,0,1,0,0,0,0,0,0
1449,'2025/06/30 16:26:20:018',65,0.373885,-0.018923,-0.001641,-0.004299,-0.006797,0.089616,0.318142,0.134377,0.15309,0.72108,0.022605,-0.116468,0.204332,-0.011275,-0.172883,0.312404,-0.013773,-0.156633,0.319009,-0.019032,0,0,0,0,0,0,0,0,1,0,0,0,0,0,0
1450,'2025/06/30 16:26:20:023',65,0.373885,-0.018923,-0.001641,-0.004299,-0.006797,0.089616,0.318142,0.134377,0.15309,0.72108,0.022605,-0.116468,0.204332,-0.011275,-0.172883,0.312404,-0.013773,-0.156633,0.319009,-0.019032,0,0,0,0,0,0,0,0,1,0,0,0,0,0,0
1451,'2025/06/30 16:26:20:028',65,0.373885,-0.018923,-0.001641,-0.004299,-0.006797,0.089616,0.318142,0.134377,0.15309,0.72108,0.022605,-0.116468,0.204332,-0.011275,-0.172883,0.312404,-0.013773,-0.156633,0.319009,-0.019032,0,0,0,0,0,0,0,0,1,0,0,0,0,0,0
1452,'2025/06/30 16:26:20:034',65,0.373885,-0.018923,-0.001641,-0.004299,-0.006797,0.089616,0.318142,0.134377,0.15309,0.72108,0.022605,-0.116468,0.204332,-0.011275,-0.172883,0.312404,-0.013773,-0.156633,0.319009,-0.019032,0,0,0,0,0,0,0,0,1,0,0,0,0,0,0
1453,'2025/06/30 16:26:20:039',65,0.373885,-0.018923,-0.001641,-0.004299,-0.006797,0.089616,0.318142,0.134377,0.15309,0.72108,0.022605,-0.116468,0.204332,-0.011275,-0.172883,0.312404,-0.013773,-0.156633,0.319009,-0.019032,0,0,0,0,0,0,0,0,1,0,0,0,0,0,0
1454,'2025/06/30 16:26:20:046',65,0.373885,-0.018923,-0.001641,-0.004299,-0.006797,0.089616,0.318142,0.134377,0.15309,0.72108,0.022605,-0.116468,0.204332,-0.011275,-0.172883,0.312404,-0.013773,-0.156633,0.319009,-0.019032,0,0,0,0,0,0,0,0,1,0,0,0,0,0,0
1455,'2025/06/30 16:26:20:051',65,0.373885,-0.018923,-0.001641,-0.004299,-0.006797,0.089616,0.318142,0.134377,0.15309,0.72108,0.022605,-0.116468,0.204332,-0.011275,-0.172883,0.312404,-0.013773,-0.156633,0.319009,-0.019032,0,0,0,0,0,0,0,0,1,0,0,0,0,0,0
1456,'2025/06/30 16:26:20:056',65,0.373885,-0.018923,-0.001641,-0.004299,-0.006797,0.089616,0.318142,0.134377,0.15309,0.72108,0.022605,-0.116468,0.204332,-0.011275,-0.172883,0.312404,-0.013773,-0.156633,0.319009,-0.019032,0,0,0,0,0,0,0,0,1,0,0,0,0,0,0
1457,'2025/06/30 16:26:20:061',65,0.373885,-0.018923,-0.001641,-0.004299,-0.006797,0.089616,0.318142,0.134377,0.15309,0.72108,0.022605,-0.116468,0.204332,-0.011275,-0.172883,0.312404,-0.013773,-0.156633,0.319009,-0.019032,0,0,0,0,0,0,0,0,1,0,0,0,0,0,0
1458,'2025/06/30 16:26:20:064',65,0.373885,-0.018923,-0.001641,-0.004299,-0.006797,0.089616,0.318142,0.134377,0.15309,0.72108,0.022605,-0.116468,0.204332,-0.011275,-0.172883,0.312404,-0.013773,-0.156633,0.319009,-0.019032,0,0,0,0,0,0,0,0,1,0,0,0,0,0,0
1459,'2025/06/30 16:26:20:070',65,0.373885,-0.018923,-0.001641,-0.004299,-0.006797,0.089616,0.318142,0.134377,0.15309,0.72108,0.022605,-0.116468,0.204332,-0.011275,-0.172883,0.312404,-0.013773,-0.156633,0.319009,-0.019032,0,0,0,0,0,0,0,0,1,0,0,0,0,0,0
1460,'2025/06/30 16:26:20:075',65,0.373885,-0.018923,-0.001641,-0.004299,-0.006797,0.089616,0.318142,0.134377,0.15309,0.72108,0.022605,-0.116468,0.204332,-0.011275,-0.172883,0.312404,-0.013773,-0.156633,0.319009,-0.019032,0,0,0,0,0,0,0,0,1,0,0,0,0,0,0
1461,'2025/06/30 16:26:20:082',65,0.373885,-0.018923,-0.001641,-0.004299,-0.006797,0.089616,0.318142,0.134377,0.15309,0.72108,0.022605,-0.116468,0.204332,-0.011275,-0.172883,0.312404,-0.013773,-0.156633,0.319009,-0.019032,0,0,0,0,0,0,0,0,1,0,0,0,0,0,0
1462,'2025/06/30 16:26:20:087',65,0.373885,-0.018923,-0.001641,-0.004299,-0.006797,0.089616,0.318142,0.134377,0.15309,0.72108,0.022605,-0.116468,0.204332,-0.011275,-0.172883,0.312404,-0.013773,-0.156633,0.319009,-0.019032,0,0,0,0,0,0,0,0,1,0,0,0,0,0,0
1463,'2025/06/30 16:26:20:092',65,0.373885,-0.018923,-0.001641,-0.004299,-0.006797,0.089616,0.318142,0.134377,0.15309,0.72108,0.022605,-0.116468,0.204332,-0.011275,-0.172883,0.312404,-0.013773,-0.156633,0.319009,-0.019032,0,0,0,0,0,0,0,0,1,0,0,0,0,0,0
1464,'2025/06/30 16:26:20:097',65,0.373885,-0.018923,-0.001641,-0.004299,-0.006797,0.089616,0.318142,0.134377,0.15309,0.72108,0.022605,-0.116468,0.204332,-0.011275,-0.172883,0.312404,-0.013773,-0.156633,0.319009,-0.019032,0,0,0,0,0,0,0,0,1,0,0,0,0,0,0
1465,'2025/06/30 16:26:20:103',65,0.373885,-0.018923,-0.001641,-0.004299,-0.006797,0.089616,0.318142,0.134377,0.15309,0.72108,0.022605,-0.116468,0.204332,-0.011275,-0.172883,0.312404,-0.013773,-0.156633,0.319009,-0.019032,0,0,0,0,0,0,0,0,1,0,0,0,0,0,0
1466,'2025/06/30 16:26:20:107',65,0.373885,-0.018923,-0.001641,-0.004299,-0.006797,0.089616,0.318142,0.134377,0.15309,0.72108,0.022605,-0.116468,0.204332,-0.011275,-0.172883,0.312404,-0.013773,-0.156633,0.319009,-0.019032,0,0,0,0,0,0,0,0,1,0,0,0,0,0,0
1467,'2025/06/30 16:26:20:112',65,0.373885,-0.018923,-0.001641,-0.004299,-0.006797,0.089616,0.318142,0.134377,0.15309,0.72108,0.022605,-0.116468,0.204332,-0.011275,-0.172883,0.312404,-0.013773,-0.156633,0.319009,-0.019032,0,0,0,0,0,0,0,0,1,0,0,0,0,0,0
1468,'2025/06/30 16:26:20:118',65,0.373885,-0.018923,-0.001641,-0.004299,-0.006797,0.089616,0.318142,0.134377,0.15309,0.72108,0.022605,-0.116468,0.204332,-0.011275,-0.172883,0.312404,-0.013773,-0.156633,0.319009,-0.019032,0,0,0,0,0,0,0,0,1,0,0,0,0,0,0
1469,'2025/06/30 16:26:20:122',65,0.373885,-0.018923,-0.001641,-0.004299,-0.006797,0.089616,0.318142,0.134377,0.15309,0.72108,0.022605,-0.116468,0.204332,-0.011275,-0.172883,0.312404,-0.013773,-0.156633,0.319009,-0.019032,0,0,0,0,0,0,0,0,1,0,0,0,0,0,0
1470,'2025/06/30 16:26:20:127',65,0.373885,-0.018923,-0.001641,-0.004299,-0.006797,0.089616,0.318142,0.134377,0.15309,0.72108,0.022605,-0.116468,0.204332,-0.011275,-0.172883,0.312404,-0.013773,-0.156633,0.319009,-0.019032,0,0,0,0,0,0,0,0,1,0,0,0,0,0,0
1471,'2025/06/30 16:26:20:132',65,0.373885,-0.018923,-0.001641,-0.004299,-0.006797,0.089616,0.318142,0.134377,0.15309,0.72108,0.022605,-0.116468,0.204332,-0.011275,-0.172883,0.312404,-0.013773,-0.156633,0.319009,-0.019032,0,0,0,0,0,0,0,0,1,0,0,0,0,0,0
1472,'2025/06/30 16:26:20:138',65,0.373885,-0.018923,-0.001641,-0.004299,-0.006797,0.089616,0.318142,0.134377,0.15309,0.72108,0.022605,-0.116468,0.204332,-0.011275,-0.172883,0.312404,-0.013773,-0.156633,0.319009,-0.019032,0,0,0,0,0,0,0,0,1,0,0,0,0,0,0
1473,'2025/06/30 16:26:32:798',66,0.501527,-0.033721,-0.001641,-0.004299,-0.006797,0.026542,0.443006,0.207072,0.311298,0.749963,0.023954,-0.116468,0.204332,-0.011275,-0.172883,0.312404,-0.013773,-0.156633,0.319009,-0.019032,0,0,0,0,0,0,0,0,1,0,0,0,0,0,0
1474,'2025/06/30 16:26:32:804',66,0.501527,-0.033721,-0.001641,-0.004299,-0.006797,0.026542,0.443006,0.207072,0.311298,0.749963,0.023954,-0.116468,0.204332,-0.011275,-0.172883,0.312404,-0.013773,-0.156633,0.319009,-0.019032,0,0,0,0,0,0,0,0,1,0,0,0,0,0,0
1475,'2025/06/30 16:26:32:808',66,0.501527,-0.033721,-0.001641,-0.004299,-0.006797,0.026542,0.443006,0.207072,0.311298,0.749963,0.023954,-0.116468,0.204332,-0.011275,-0.172883,0.312404,-0.013773,-0.156633,0.319009,-0.019032,0,0,0,0,0,0,0,0,1,0,0,0,0,0,0
1476,'2025/06/30 16:26:32:813',66,0.501527,-0.033721,-0.001641,-0.004299,-0.006797,0.026542,0.443006,0.207072,0.311298,0.749963,0.023954,-0.116468,0.204332,-0.011275,-0.172883,0.312404,-0.013773,-0.156633,0.319009,-0.019032,0,0,0,0,0,0,0,0,1,0,0,0,0,0,0
1477,'2025/06/30 16:26:32:819',66,0.501527,-0.033721,-0.001641,-0.004299,-0.006797,0.026542,0.443006,0.207072,0.311298,0.749963,0.023954,-0.116468,0.204332,-0.011275,-0.172883,0.312404,-0.013773,-0.156633,0.319009,-0.019032,0,0,0,0,0,0,0,0,1,0,0,0,0,0,0
1478,'2025/06/30 16:26:32:824',66,0.501527,-0.033721,-0.001641,-0.004299,-0.006797,0.026542,0.443006,0.207072,0.311298,0.749963,0.023954,-0.116468,0.204332,-0.011275,-0.172883,0.312404,-0.013773,-0.156633,0.319009,-0.019032,0,0,0,0,0,0,0,0,1,0,0,0,0,0,0
1479,'2025/06/30 16:26:32:828',66,0.501527,-0.033721,-0.001641,-0.004299,-0.006797,0.026542,0.443006,0.207072,0.311298,0.749963,0.023954,-0.116468,0.204332,-0.011275,-0.172883,0.312404,-0.013773,-0.156633,0.319009,-0.019032,0,0,0,0,0,0,0,0,1,0,0,0,0,0,0
1480,'2025/06/30 16:26:32:832',66,0.501527,-0.033721,-0.001641,-0.004299,-0.006797,0.026542,0.443006,0.207072,0.311298,0.749963,0.023954,-0.116468,0.204332,-0.011275,-0.172883,0.312404,-0.013773,-0.156633,0.319009,-0.019032,0,0,0,0,0,0,0,0,1,0,0,0,0,0,0
1481,'2025/06/30 16:26:32:838',66,0.501527,-0.033721,-0.001641,-0.004299,-0.006797,0.026542,0.443006,0.207072,0.311298,0.749963,0.023954,-0.116468,0.204332,-0.011275,-0.172883,0.312404,-0.013773,-0.156633,0.319009,-0.019032,0,0,0,0,0,0,0,0,1,0,0,0,0,0,0
1482,'2025/06/30 16:26:32:845',66,0.501527,-0.033721,-0.001641,-0.004299,-0.006797,0.026542,0.443006,0.207072,0.311298,0.749963,0.023954,-0.116468,0.204332,-0.011275,-0.172883,0.312404,-0.013773,-0.156633,0.319009,-0.019032,0,0,0,0,0,0,0,0,1,0,0,0,0,0,0
1483,'2025/06/30 16:26:32:850',66,0.501527,-0.033721,-0.001641,-0.004299,-0.006797,0.026542,0.443006,0.207072,0.311298,0.749963,0.023954,-0.116468,0.204332,-0.011275,-0.172883,0.312404,-0.013773,-0.156633,0.319009,-0.019032,0,0,0,0,0,0,0,0,1,0,0,0,0,0,0
1484,'2025/06/30 16:26:32:855',66,0.501527,-0.033721,-0.001641,-0.004299,-0.006797,0.026542,0.443006,0.207072,0.311298,0.749963,0.023954,-0.116468,0.204332,-0.011275,-0.172883,0.312404,-0.013773,-0.156633,0.319009,-0.019032,0,0,0,0,0,0,0,0,1,0,0,0,0,0,0
1485,'2025/06/30 16:26:32:861',66,0.501527,-0.033721,-0.001641,-0.004299,-0.006797,0.026542,0.443006,0.207072,0.311298,0.749963,0.023954,-0.116468,0.204332,-0.011275,-0.172883,0.312404,-0.013773,-0.156633,0.319009,-0.019032,0,0,0,0,0,0,0,0,1,0,0,0,0,0,0
1486,'2025/06/30 16:26:32:866',66,0.501527,-0.033721,-0.001641,-0.004299,-0.006797,0.026542,0.443006,0.207072,0.311298,0.749963,0.023954,-0.116468,0.204332,-0.011275,-0.172883,0.312404,-0.013773,-0.156633,0.319009,-0.019032,0,0,0,0,0,0,0,0,1,0,0,0,0,0,0
1487,'2025/06/30 16:26:32:871',66,0.501527,-0.033721,-0.001641,-0.004299,-0.006797,0.026542,0.443006,0.207072,0.311298,0.749963,0.023954,-0.116468,0.204332,-0.011275,-0.172883,0.312404,-0.013773,-0.156633,0.319009,-0.019032,0,0,0,0,0,0,0,0,1,0,0,0,0,0,0
1488,'2025/06/30 16:26:32:877',66,0.501527,-0.033721,-0.001641,-0.004299,-0.006797,0.026542,0.443006,0.207072,0.311298,0.749963,0.023954,-0.116468,0.204332,-0.011275,-0.172883,0.312404,-0.013773,-0.156633,0.319009,-0.019032,0,0,0,0,0,0,0,0,1,0,0,0,0,0,0
1489,'2025/06/30 16:26:32:883',66,0.501527,-0.033721,-0.001641,-0.004299,-0.006797,0.026542,0.443006,0.207072,0.311298,0.749963,0.023954,-0.116468,0.204332,-0.011275,-0.172883,0.312404,-0.013773,-0.156633,0.319009,-0.019032,0,0,0,0,0,0,0,0,1,0,0,0,0,0,0
1490,'2025/06/30 16:26:32:889',66,0.501527,-0.033721,-0.001641,-0.004299,-0.006797,0.026542,0.443006,0.207072,0.311298,0.749963,0.023954,-0.116468,0.204332,-0.011275,-0.172883,0.312404,-0.013773,-0.156633,0.319009,-0.019032,0,0,0,0,0,0,0,0,1,0,0,0,0,0,0
1491,'2025/06/30 16:26:32:893',66,0.501527,-0.033721,-0.001641,-0.004299,-0.006797,0.026542,0.443006,0.207072,0.311298,0.749963,0.023954,-0.116468,0.204332,-0.011275,-0.172883,0.312404,-0.013773,-0.156633,0.319009,-0.019032,0,0,0,0,0,0,0,0,1,0,0,0,0,0,0
1492,'2025/06/30 16:26:32:898',66,0.501527,-0.033721,-0.001641,-0.004299,-0.006797,0.026542,0.443006,0.207072,0.311298,0.749963,0.023954,-0.116468,0.204332,-0.011275,-0.172883,0.312404,-0.013773,-0.156633,0.319009,-0.019032,0,0,0,0,0,0,0,0,1,0,0,0,0,0,0
1493,'2025/06/30 16:26:32:904',66,0.501527,-0.033721,-0.001641,-0.004299,-0.006797,0.026542,0.443006,0.207072,0.311298,0.749963,0.023954,-0.116468,0.204332,-0.011275,-0.172883,0.312404,-0.013773,-0.156633,0.319009,-0.019032,0,0,0,0,0,0,0,0,1,0,0,0,0,0,0
1494,'2025/06/30 16:26:32:910',66,0.501527,-0.033721,-0.001641,-0.004299,-0.006797,0.026542,0.443006,0.207072,0.311298,0.749963,0.023954,-0.116468,0.204332,-0.011275,-0.172883,0.312404,-0.013773,-0.156633,0.319009,-0.019032,0,0,0,0,0,0,0,0,1,0,0,0,0,0,0
1495,'2025/06/30 16:26:32:915',66,0.501527,-0.033721,-0.001641,-0.004299,-0.006797,0.026542,0.443006,0.207072,0.311298,0.749963,0.023954,-0.116468,0.204332,-0.011275,-0.172883,0.312404,-0.013773,-0.156633,0.319009,-0.019032,0,0,0,0,0,0,0,0,1,0,0,0,0,0,0
1496,'2025/06/30 16:26:32:921',66,0.501527,-0.033721,-0.001641,-0.004299,-0.006797,0.026542,0.443006,0.207072,0.311298,0.749963,0.023954,-0.116468,0.204332,-0.011275,-0.172883,0.312404,-0.013773,-0.156633,0.319009,-0.019032,0,0,0,0,0,0,0,0,1,0,0,0,0,0,0
1497,'2025/06/30 16:26:32:927',66,0.501527,-0.033721,-0.001641,-0.004299,-0.006797,0.026542,0.443006,0.207072,0.311298,0.749963,0.023954,-0.116468,0.204332,-0.011275,-0.172883,0.312404,-0.013773,-0.156633,0.319009,-0.019032,0,0,0,0,0,0,0,0,1,0,0,0,0,0,0
1498,'2025/06/30 16:26:32:931',66,0.501527,-0.033721,-0.001641,-0.004299,-0.006797,0.026542,0.443006,0.207072,0.311298,0.749963,0.023954,-0.116468,0.204332,-0.011275,-0.172883,0.312404,-0.013773,-0.156633,0.319009,-0.019032,0,0,0,0,0,0,0,0,1,0,0,0,0,0,0
1499,'2025/06/30 16:26:32:935',66,0.501527,-0.033721,-0.001641,-0.004299,-0.006797,0.026542,0.443006,0.207072,0.311298,0.749963,0.023954,-0.116468,0.204332,-0.011275,-0.172883,0.312404,-0.013773,-0.156633,0.319009,-0.019032,0,0,0,0,0,0,0,0,1,0,0,0,0,0,0
1500,'2025/06/30 16:26:44:888',67,0.529574,0.073123,-0.001641,-0.004299,-0.006797,-0.014663,0.435765,0.095391,0.347025,0.704228,-0.157955,-0.116468,0.204332,-0.011275,-0.172883,0.312404,-0.013773,-0.156633,0.319009,-0.019032,0,0,0,0,0,0,0,0,1,0,0,0,0,0,0
1501,'2025/06/30 16:26:44:894',67,0.529574,0.073123,-0.001641,-0.004299,-0.006797,-0.014663,0.435765,0.095391,0.347025,0.704228,-0.157955,-0.116468,0.204332,-0.011275,-0.172883,0.312404,-0.013773,-0.156633,0.319009,-0.019032,0,0,0,0,0,0,0,0,1,0,0,0,0,0,0
1502,'2025/06/30 16:26:44:897',67,0.529574,0.073123,-0.001641,-0.004299,-0.006797,-0.014663,0.435765,0.095391,0.347025,0.704228,-0.157955,-0.116468,0.204332,-0.011275,-0.172883,0.312404,-0.013773,-0.156633,0.319009,-0.019032,0,0,0,0,0,0,0,0,1,0,0,0,0,0,0
1503,'2025/06/30 16:26:44:903',67,0.529574,0.073123,-0.001641,-0.004299,-0.006797,-0.014663,0.435765,0.095391,0.347025,0.704228,-0.157955,-0.116468,0.204332,-0.011275,-0.172883,0.312404,-0.013773,-0.156633,0.319009,-0.019032,0,0,0,0,0,0,0,0,1,0,0,0,0,0,0
1504,'2025/06/30 16:26:44:908',67,0.529574,0.073123,-0.001641,-0.004299,-0.006797,-0.014663,0.435765,0.095391,0.347025,0.704228,-0.157955,-0.116468,0.204332,-0.011275,-0.172883,0.312404,-0.013773,-0.156633,0.319009,-0.019032,0,0,0,0,0,0,0,0,1,0,0,0,0,0,0
1505,'2025/06/30 16:26:44:913',67,0.529574,0.073123,-0.001641,-0.004299,-0.006797,-0.014663,0.435765,0.095391,0.347025,0.704228,-0.157955,-0.116468,0.204332,-0.011275,-0.172883,0.312404,-0.013773,-0.156633,0.319009,-0.019032,0,0,0,0,0,0,0,0,1,0,0,0,0,0,0
1506,'2025/06/30 16:26:44:918',67,0.529574,0.073123,-0.001641,-0.004299,-0.006797,-0.014663,0.435765,0.095391,0.347025,0.704228,-0.157955,-0.116468,0.204332,-0.011275,-0.172883,0.312404,-0.013773,-0.156633,0.319009,-0.019032,0,0,0,0,0,0,0,0,1,0,0,0,0,0,0
1507,'2025/06/30 16:26:44:922',67,0.529574,0.073123,-0.001641,-0.004299,-0.006797,-0.014663,0.435765,0.095391,0.347025,0.704228,-0.157955,-0.116468,0.204332,-0.011275,-0.172883,0.312404,-0.013773,-0.156633,0.319009,-0.019032,0,0,0,0,0,0,0,0,1,0,0,0,0,0,0
1508,'2025/06/30 16:26:44:926',67,0.529574,0.073123,-0.001641,-0.004299,-0.006797,-0.014663,0.435765,0.095391,0.347025,0.704228,-0.157955,-0.116468,0.204332,-0.011275,-0.172883,0.312404,-0.013773,-0.156633,0.319009,-0.019032,0,0,0,0,0,0,0,0,1,0,0,0,0,0,0
1509,'2025/06/30 16:26:44:932',67,0.529574,0.073123,-0.001641,-0.004299,-0.006797,-0.014663,0.435765,0.095391,0.347025,0.704228,-0.157955,-0.116468,0.204332,-0.011275,-0.172883,0.312404,-0.013773,-0.156633,0.319009,-0.019032,0,0,0,0,0,0,0,0,1,0,0,0,0,0,0
1510,'2025/06/30 16:26:44:937',67,0.529574,0.073123,-0.001641,-0.004299,-0.006797,-0.014663,0.435765,0.095391,0.347025,0.704228,-0.157955,-0.116468,0.204332,-0.011275,-0.172883,0.312404,-0.013773,-0.156633,0.319009,-0.019032,0,0,0,0,0,0,0,0,1,0,0,0,0,0,0
1511,'2025/06/30 16:26:44:942',67,0.529574,0.073123,-0.001641,-0.004299,-0.006797,-0.014663,0.435765,0.095391,0.347025,0.704228,-0.157955,-0.116468,0.204332,-0.011275,-0.172883,0.312404,-0.013773,-0.156633,0.319009,-0.019032,0,0,0,0,0,0,0,0,1,0,0,0,0,0,0
1512,'2025/06/30 16:26:44:950',67,0.529574,0.073123,-0.001641,-0.004299,-0.006797,-0.014663,0.435765,0.095391,0.347025,0.704228,-0.157955,-0.116468,0.204332,-0.011275,-0.172883,0.312404,-0.013773,-0.156633,0.319009,-0.019032,0,0,0,0,0,0,0,0,1,0,0,0,0,0,0
1513,'2025/06/30 16:26:44:954',67,0.529574,0.073123,-0.001641,-0.004299,-0.006797,-0.014663,0.435765,0.095391,0.347025,0.704228,-0.157955,-0.116468,0.204332,-0.011275,-0.172883,0.312404,-0.013773,-0.156633,0.319009,-0.019032,0,0,0,0,0,0,0,0,1,0,0,0,0,0,0
1514,'2025/06/30 16:26:44:960',67,0.529574,0.073123,-0.001641,-0.004299,-0.006797,-0.014663,0.435765,0.095391,0.347025,0.704228,-0.157955,-0.116468,0.204332,-0.011275,-0.172883,0.312404,-0.013773,-0.156633,0.319009,-0.019032,0,0,0,0,0,0,0,0,1,0,0,0,0,0,0
1515,'2025/06/30 16:26:44:965',67,0.529574,0.073123,-0.001641,-0.004299,-0.006797,-0.014663,0.435765,0.095391,0.347025,0.704228,-0.157955,-0.116468,0.204332,-0.011275,-0.172883,0.312404,-0.013773,-0.156633,0.319009,-0.019032,0,0,0,0,0,0,0,0,1,0,0,0,0,0,0
1516,'2025/06/30 16:26:44:971',67,0.529574,0.073123,-0.001641,-0.004299,-0.006797,-0.014663,0.435765,0.095391,0.347025,0.704228,-0.157955,-0.116468,0.204332,-0.011275,-0.172883,0.312404,-0.013773,-0.156633,0.319009,-0.019032,0,0,0,0,0,0,0,0,1,0,0,0,0,0,0
1517,'2025/06/30 16:26:44:977',67,0.529574,0.073123,-0.001641,-0.004299,-0.006797,-0.014663,0.435765,0.095391,0.347025,0.704228,-0.157955,-0.116468,0.204332,-0.011275,-0.172883,0.312404,-0.013773,-0.156633,0.319009,-0.019032,0,0,0,0,0,0,0,0,1,0,0,0,0,0,0
1518,'2025/06/30 16:26:44:983',67,0.529574,0.073123,-0.001641,-0.004299,-0.006797,-0.014663,0.435765,0.095391,0.347025,0.704228,-0.157955,-0.116468,0.204332,-0.011275,-0.172883,0.312404,-0.013773,-0.156633,0.319009,-0.019032,0,0,0,0,0,0,0,0,1,0,0,0,0,0,0
1519,'2025/06/30 16:26:44:988',67,0.529574,0.073123,-0.001641,-0.004299,-0.006797,-0.014663,0.435765,0.095391,0.347025,0.704228,-0.157955,-0.116468,0.204332,-0.011275,-0.172883,0.312404,-0.013773,-0.156633,0.319009,-0.019032,0,0,0,0,0,0,0,0,1,0,0,0,0,0,0
1520,'2025/06/30 16:26:44:993',67,0.529574,0.073123,-0.001641,-0.004299,-0.006797,-0.014663,0.435765,0.095391,0.347025,0.704228,-0.157955,-0.116468,0.204332,-0.011275,-0.172883,0.312404,-0.013773,-0.156633,0.319009,-0.019032,0,0,0,0,0,0,0,0,1,0,0,0,0,0,0
1521,'2025/06/30 16:26:44:999',67,0.529574,0.073123,-0.001641,-0.004299,-0.006797,-0.014663,0.435765,0.095391,0.347025,0.704228,-0.157955,-0.116468,0.204332,-0.011275,-0.172883,0.312404,-0.013773,-0.156633,0.319009,-0.019032,0,0,0,0,0,0,0,0,1,0,0,0,0,0,0
1522,'2025/06/30 16:26:45:005',67,0.529574,0.073123,-0.001641,-0.004299,-0.006797,-0.014663,0.435765,0.095391,0.347025,0.704228,-0.157955,-0.116468,0.204332,-0.011275,-0.172883,0.312404,-0.013773,-0.156633,0.319009,-0.019032,0,0,0,0,0,0,0,0,1,0,0,0,0,0,0
1523,'2025/06/30 16:26:45:009',67,0.529574,0.073123,-0.001641,-0.004299,-0.006797,-0.014663,0.435765,0.095391,0.347025,0.704228,-0.157955,-0.116468,0.204332,-0.011275,-0.172883,0.312404,-0.013773,-0.156633,0.319009,-0.019032,0,0,0,0,0,0,0,0,1,0,0,0,0,0,0
1524,'2025/06/30 16:26:45:015',67,0.529574,0.073123,-0.001641,-0.004299,-0.006797,-0.014663,0.435765,0.095391,0.347025,0.704228,-0.157955,-0.116468,0.204332,-0.011275,-0.172883,0.312404,-0.013773,-0.156633,0.319009,-0.019032,0,0,0,0,0,0,0,0,1,0,0,0,0,0,0
1525,'2025/06/30 16:26:45:022',67,0.529574,0.073123,-0.001641,-0.004299,-0.006797,-0.014663,0.435765,0.095391,0.347025,0.704228,-0.157955,-0.116468,0.204332,-0.011275,-0.172883,0.312404,-0.013773,-0.156633,0.319009,-0.019032,0,0,0,0,0,0,0,0,1,0,0,0,0,0,0
1526,'2025/06/30 16:26:45:028',67,0.529574,0.073123,-0.001641,-0.004299,-0.006797,-0.014663,0.435765,0.095391,0.347025,0.704228,-0.157955,-0.116468,0.204332,-0.011275,-0.172883,0.312404,-0.013773,-0.156633,0.319009,-0.019032,0,0,0,0,0,0,0,0,1,0,0,0,0,0,0
1527,'2025/06/30 16:26:45:033',67,0.529574,0.073123,-0.001641,-0.004299,-0.006797,-0.014663,0.435765,0.095391,0.347025,0.704228,-0.157955,-0.116468,0.204332,-0.011275,-0.172883,0.312404,-0.013773,-0.156633,0.319009,-0.019032,0,0,0,0,0,0,0,0,1,0,0,0,0,0,0
1528,'2025/06/30 16:26:45:039',67,0.529574,0.073123,-0.001641,-0.004299,-0.006797,-0.014663,0.435765,0.095391,0.347025,0.704228,-0.157955,-0.116468,0.204332,-0.011275,-0.172883,0.312404,-0.013773,-0.156633,0.319009,-0.019032,0,0,0,0,0,0,0,0,1,0,0,0,0,0,0
1529,'2025/06/30 16:26:50:402',68,0.529574,0.073123,-0.004302,-0.0038,-0.004218,-0.014663,0.435765,0.095391,0.347025,0.704228,-0.157955,0.025264,0,-0.005511,0.020845,0,-0.005698,0.025616,0,-0.005619,0,0,0,0,0,0,0,0,1,0,0,0,0,0,0
1530,'2025/06/30 16:26:50:407',68,0.529574,0.073123,-0.004302,-0.0038,-0.004218,-0.014663,0.435765,0.095391,0.347025,0.704228,-0.157955,0.025264,0,-0.005511,0.020845,0,-0.005698,0.025616,0,-0.005619,0,0,0,0,0,0,0,0,1,0,0,0,0,0,0
1531,'2025/06/30 16:26:50:412',68,0.529574,0.073123,-0.004302,-0.0038,-0.004218,-0.014663,0.435765,0.095391,0.347025,0.704228,-0.157955,0.025264,0,-0.005511,0.020845,0,-0.005698,0.025616,0,-0.005619,0,0,0,0,0,0,0,0,1,0,0,0,0,0,0
1532,'2025/06/30 16:26:50:419',68,0.529574,0.073123,-0.004302,-0.0038,-0.004218,-0.014663,0.435765,0.095391,0.347025,0.704228,-0.157955,0.025264,0,-0.005511,0.020845,0,-0.005698,0.025616,0,-0.005619,0,0,0,0,0,0,0,0,1,0,0,0,0,0,0
1533,'2025/06/30 16:26:50:422',68,0.529574,0.073123,-0.004302,-0.0038,-0.004218,-0.014663,0.435765,0.095391,0.347025,0.704228,-0.157955,0.025264,0,-0.005511,0.020845,0,-0.005698,0.025616,0,-0.005619,0,0,0,0,0,0,0,0,1,0,0,0,0,0,0
1534,'2025/06/30 16:26:50:427',68,0.529574,0.073123,-0.004302,-0.0038,-0.004218,-0.014663,0.435765,0.095391,0.347025,0.704228,-0.157955,0.025264,0,-0.005511,0.020845,0,-0.005698,0.025616,0,-0.005619,0,0,0,0,0,0,0,0,1,0,0,0,0,0,0
1535,'2025/06/30 16:26:50:434',68,0.529574,0.073123,-0.004302,-0.0038,-0.004218,-0.014663,0.435765,0.095391,0.347025,0.704228,-0.157955,0.025264,0,-0.005511,0.020845,0,-0.005698,0.025616,0,-0.005619,0,0,0,0,0,0,0,0,1,0,0,0,0,0,0
1536,'2025/06/30 16:26:50:441',68,0.529574,0.073123,-0.004302,-0.0038,-0.004218,-0.014663,0.435765,0.095391,0.347025,0.704228,-0.157955,0.025264,0,-0.005511,0.020845,0,-0.005698,0.025616,0,-0.005619,0,0,0,0,0,0,0,0,1,0,0,0,0,0,0
1537,'2025/06/30 16:26:50:446',68,0.529574,0.073123,-0.004302,-0.0038,-0.004218,-0.014663,0.435765,0.095391,0.347025,0.704228,-0.157955,0.025264,0,-0.005511,0.020845,0,-0.005698,0.025616,0,-0.005619,0,0,0,0,0,0,0,0,1,0,0,0,0,0,0
1538,'2025/06/30 16:26:50:452',68,0.529574,0.073123,-0.004302,-0.0038,-0.004218,-0.014663,0.435765,0.095391,0.347025,0.704228,-0.157955,0.025264,0,-0.005511,0.020845,0,-0.005698,0.025616,0,-0.005619,0,0,0,0,0,0,0,0,1,0,0,0,0,0,0
1539,'2025/06/30 16:26:50:458',68,0.529574,0.073123,-0.004302,-0.0038,-0.004218,-0.014663,0.435765,0.095391,0.347025,0.704228,-0.157955,0.025264,0,-0.005511,0.020845,0,-0.005698,0.025616,0,-0.005619,0,0,0,0,0,0,0,0,1,0,0,0,0,0,0
1540,'2025/06/30 16:26:50:464',68,0.529574,0.073123,-0.004302,-0.0038,-0.004218,-0.014663,0.435765,0.095391,0.347025,0.704228,-0.157955,0.025264,0,-0.005511,0.020845,0,-0.005698,0.025616,0,-0.005619,0,0,0,0,0,0,0,0,1,0,0,0,0,0,0
1541,'2025/06/30 16:26:50:470',68,0.529574,0.073123,-0.004302,-0.0038,-0.004218,-0.014663,0.435765,0.095391,0.347025,0.704228,-0.157955,0.025264,0,-0.005511,0.020845,0,-0.005698,0.025616,0,-0.005619,0,0,0,0,0,0,0,0,1,0,0,0,0,0,0
1542,'2025/06/30 16:26:50:474',68,0.529574,0.073123,-0.004302,-0.0038,-0.004218,-0.014663,0.435765,0.095391,0.347025,0.704228,-0.157955,0.025264,0,-0.005511,0.020845,0,-0.005698,0.025616,0,-0.005619,0,0,0,0,0,0,0,0,1,0,0,0,0,0,0
1543,'2025/06/30 16:26:50:481',68,0.529574,0.073123,-0.004302,-0.0038,-0.004218,-0.014663,0.435765,0.095391,0.347025,0.704228,-0.157955,0.025264,0,-0.005511,0.020845,0,-0.005698,0.025616,0,-0.005619,0,0,0,0,0,0,0,0,1,0,0,0,0,0,0
1544,'2025/06/30 16:26:50:488',68,0.529574,0.073123,-0.004302,-0.0038,-0.004218,-0.014663,0.435765,0.095391,0.347025,0.704228,-0.157955,0.025264,0,-0.005511,0.020845,0,-0.005698,0.025616,0,-0.005619,0,0,0,0,0,0,0,0,1,0,0,0,0,0,0
1545,'2025/06/30 16:26:50:496',68,0.529574,0.073123,-0.004302,-0.0038,-0.004218,-0.014663,0.435765,0.095391,0.347025,0.704228,-0.157955,0.025264,0,-0.005511,0.020845,0,-0.005698,0.025616,0,-0.005619,0,0,0,0,0,0,0,0,1,0,0,0,0,0,0
1546,'2025/06/30 16:26:50:502',68,0.529574,0.073123,-0.004302,-0.0038,-0.004218,-0.014663,0.435765,0.095391,0.347025,0.704228,-0.157955,0.025264,0,-0.005511,0.020845,0,-0.005698,0.025616,0,-0.005619,0,0,0,0,0,0,0,0,1,0,0,0,0,0,0
1547,'2025/06/30 16:26:50:508',68,0.529574,0.073123,-0.004302,-0.0038,-0.004218,-0.014663,0.435765,0.095391,0.347025,0.704228,-0.157955,0.025264,0,-0.005511,0.020845,0,-0.005698,0.025616,0,-0.005619,0,0,0,0,0,0,0,0,1,0,0,0,0,0,0
1548,'2025/06/30 16:26:50:513',68,0.529574,0.073123,-0.004302,-0.0038,-0.004218,-0.014663,0.435765,0.095391,0.347025,0.704228,-0.157955,0.025264,0,-0.005511,0.020845,0,-0.005698,0.025616,0,-0.005619,0,0,0,0,0,0,0,0,1,0,0,0,0,0,0
1549,'2025/06/30 16:27:10:254',69,0.517655,-0.031255,-0.004302,-0.0038,-0.004218,0.010061,0.469925,0.229784,0.375355,0.732822,0.010608,0.025264,0,-0.005511,0.020845,0,-0.005698,0.025616,0,-0.005619,0,0,0,0,0,0,0,0,1,0,0,0,0,0,0
1550,'2025/06/30 16:27:10:259',69,0.517655,-0.031255,-0.004302,-0.0038,-0.004218,0.010061,0.469925,0.229784,0.375355,0.732822,0.010608,0.025264,0,-0.005511,0.020845,0,-0.005698,0.025616,0,-0.005619,0,0,0,0,0,0,0,0,1,0,0,0,0,0,0
1551,'2025/06/30 16:27:10:264',69,0.517655,-0.031255,-0.004302,-0.0038,-0.004218,0.010061,0.469925,0.229784,0.375355,0.732822,0.010608,0.025264,0,-0.005511,0.020845,0,-0.005698,0.025616,0,-0.005619,0,0,0,0,0,0,0,0,1,0,0,0,0,0,0
1552,'2025/06/30 16:27:10:269',69,0.517655,-0.031255,-0.004302,-0.0038,-0.004218,0.010061,0.469925,0.229784,0.375355,0.732822,0.010608,0.025264,0,-0.005511,0.020845,0,-0.005698,0.025616,0,-0.005619,0,0,0,0,0,0,0,0,1,0,0,0,0,0,0
1553,'2025/06/30 16:27:10:274',69,0.517655,-0.031255,-0.004302,-0.0038,-0.004218,0.010061,0.469925,0.229784,0.375355,0.732822,0.010608,0.025264,0,-0.005511,0.020845,0,-0.005698,0.025616,0,-0.005619,0,0,0,0,0,0,0,0,1,0,0,0,0,0,0
1554,'2025/06/30 16:27:10:279',69,0.517655,-0.031255,-0.004302,-0.0038,-0.004218,0.010061,0.469925,0.229784,0.375355,0.732822,0.010608,0.025264,0,-0.005511,0.020845,0,-0.005698,0.025616,0,-0.005619,0,0,0,0,0,0,0,0,1,0,0,0,0,0,0
1555,'2025/06/30 16:27:10:283',69,0.517655,-0.031255,-0.004302,-0.0038,-0.004218,0.010061,0.469925,0.229784,0.375355,0.732822,0.010608,0.025264,0,-0.005511,0.020845,0,-0.005698,0.025616,0,-0.005619,0,0,0,0,0,0,0,0,1,0,0,0,0,0,0
1556,'2025/06/30 16:27:10:289',69,0.517655,-0.031255,-0.004302,-0.0038,-0.004218,0.010061,0.469925,0.229784,0.375355,0.732822,0.010608,0.025264,0,-0.005511,0.020845,0,-0.005698,0.025616,0,-0.005619,0,0,0,0,0,0,0,0,1,0,0,0,0,0,0
1557,'2025/06/30 16:27:10:293',69,0.517655,-0.031255,-0.004302,-0.0038,-0.004218,0.010061,0.469925,0.229784,0.375355,0.732822,0.010608,0.025264,0,-0.005511,0.020845,0,-0.005698,0.025616,0,-0.005619,0,0,0,0,0,0,0,0,1,0,0,0,0,0,0
1558,'2025/06/30 16:27:10:300',69,0.517655,-0.031255,-0.004302,-0.0038,-0.004218,0.010061,0.469925,0.229784,0.375355,0.732822,0.010608,0.025264,0,-0.005511,0.020845,0,-0.005698,0.025616,0,-0.005619,0,0,0,0,0,0,0,0,1,0,0,0,0,0,0
1559,'2025/06/30 16:27:10:305',69,0.517655,-0.031255,-0.004302,-0.0038,-0.004218,0.010061,0.469925,0.229784,0.375355,0.732822,0.010608,0.025264,0,-0.005511,0.020845,0,-0.005698,0.025616,0,-0.005619,0,0,0,0,0,0,0,0,1,0,0,0,0,0,0
1560,'2025/06/30 16:27:10:312',69,0.517655,-0.031255,-0.004302,-0.0038,-0.004218,0.010061,0.469925,0.229784,0.375355,0.732822,0.010608,0.025264,0,-0.005511,0.020845,0,-0.005698,0.025616,0,-0.005619,0,0,0,0,0,0,0,0,1,0,0,0,0,0,0
1561,'2025/06/30 16:27:10:317',69,0.517655,-0.031255,-0.004302,-0.0038,-0.004218,0.010061,0.469925,0.229784,0.375355,0.732822,0.010608,0.025264,0,-0.005511,0.020845,0,-0.005698,0.025616,0,-0.005619,0,0,0,0,0,0,0,0,1,0,0,0,0,0,0
1562,'2025/06/30 16:27:10:320',69,0.517655,-0.031255,-0.004302,-0.0038,-0.004218,0.010061,0.469925,0.229784,0.375355,0.732822,0.010608,0.025264,0,-0.005511,0.020845,0,-0.005698,0.025616,0,-0.005619,0,0,0,0,0,0,0,0,1,0,0,0,0,0,0
1563,'2025/06/30 16:27:10:326',69,0.517655,-0.031255,-0.004302,-0.0038,-0.004218,0.010061,0.469925,0.229784,0.375355,0.732822,0.010608,0.025264,0,-0.005511,0.020845,0,-0.005698,0.025616,0,-0.005619,0,0,0,0,0,0,0,0,1,0,0,0,0,0,0
1564,'2025/06/30 16:27:10:332',69,0.517655,-0.031255,-0.004302,-0.0038,-0.004218,0.010061,0.469925,0.229784,0.375355,0.732822,0.010608,0.025264,0,-0.005511,0.020845,0,-0.005698,0.025616,0,-0.005619,0,0,0,0,0,0,0,0,1,0,0,0,0,0,0
1565,'2025/06/30 16:27:10:338',69,0.517655,-0.031255,-0.004302,-0.0038,-0.004218,0.010061,0.469925,0.229784,0.375355,0.732822,0.010608,0.025264,0,-0.005511,0.020845,0,-0.005698,0.025616,0,-0.005619,0,0,0,0,0,0,0,0,1,0,0,0,0,0,0
1566,'2025/06/30 16:27:10:343',69,0.517655,-0.031255,-0.004302,-0.0038,-0.004218,0.010061,0.469925,0.229784,0.375355,0.732822,0.010608,0.025264,0,-0.005511,0.020845,0,-0.005698,0.025616,0,-0.005619,0,0,0,0,0,0,0,0,1,0,0,0,0,0,0
1567,'2025/06/30 16:27:10:350',69,0.517655,-0.031255,-0.004302,-0.0038,-0.004218,0.010061,0.469925,0.229784,0.375355,0.732822,0.010608,0.025264,0,-0.005511,0.020845,0,-0.005698,0.025616,0,-0.005619,0,0,0,0,0,0,0,0,1,0,0,0,0,0,0
1568,'2025/06/30 16:27:10:355',69,0.517655,-0.031255,-0.004302,-0.0038,-0.004218,0.010061,0.469925,0.229784,0.375355,0.732822,0.010608,0.025264,0,-0.005511,0.020845,0,-0.005698,0.025616,0,-0.005619,0,0,0,0,0,0,0,0,1,0,0,0,0,0,0
1569,'2025/06/30 16:27:10:361',69,0.517655,-0.031255,-0.004302,-0.0038,-0.004218,0.010061,0.469925,0.229784,0.375355,0.732822,0.010608,0.025264,0,-0.005511,0.020845,0,-0.005698,0.025616,0,-0.005619,0,0,0,0,0,0,0,0,1,0,0,0,0,0,0
1570,'2025/06/30 16:27:10:366',69,0.517655,-0.031255,-0.004302,-0.0038,-0.004218,0.010061,0.469925,0.229784,0.375355,0.732822,0.010608,0.025264,0,-0.005511,0.020845,0,-0.005698,0.025616,0,-0.005619,0,0,0,0,0,0,0,0,1,0,0,0,0,0,0
1571,'2025/06/30 16:27:10:373',69,0.517655,-0.031255,-0.004302,-0.0038,-0.004218,0.010061,0.469925,0.229784,0.375355,0.732822,0.010608,0.025264,0,-0.005511,0.020845,0,-0.005698,0.025616,0,-0.005619,0,0,0,0,0,0,0,0,1,0,0,0,0,0,0
1572,'2025/06/30 16:27:10:378',69,0.517655,-0.031255,-0.004302,-0.0038,-0.004218,0.010061,0.469925,0.229784,0.375355,0.732822,0.010608,0.025264,0,-0.005511,0.020845,0,-0.005698,0.025616,0,-0.005619,0,0,0,0,0,0,0,0,1,0,0,0,0,0,0
1573,'2025/06/30 16:27:10:382',69,0.517655,-0.031255,-0.004302,-0.0038,-0.004218,0.010061,0.469925,0.229784,0.375355,0.732822,0.010608,0.025264,0,-0.005511,0.020845,0,-0.005698,0.025616,0,-0.005619,0,0,0,0,0,0,0,0,1,0,0,0,0,0,0
1574,'2025/06/30 16:27:10:389',69,0.517655,-0.031255,-0.004302,-0.0038,-0.004218,0.010061,0.469925,0.229784,0.375355,0.732822,0.010608,0.025264,0,-0.005511,0.020845,0,-0.005698,0.025616,0,-0.005619,0,0,0,0,0,0,0,0,1,0,0,0,0,0,0
1575,'2025/06/30 16:27:10:394',69,0.517655,-0.031255,-0.004302,-0.0038,-0.004218,0.010061,0.469925,0.229784,0.375355,0.732822,0.010608,0.025264,0,-0.005511,0.020845,0,-0.005698,0.025616,0,-0.005619,0,0,0,0,0,0,0,0,1,0,0,0,0,0,0
1576,'2025/06/30 16:27:22:420',70,0.517655,-0.031255,-0.0039,-0.006834,-0.007819,0.010061,0.469925,0.229784,0.375355,0.732822,0.010608,-0.122543,0.278879,-0.009793,-0.115028,0.30026,-0.010456,-0.091412,0.256955,-0.014276,0,0,0,0,0,0,0,0,1,0,0,0,0,0,0
1577,'2025/06/30 16:27:22:425',70,0.517655,-0.031255,-0.0039,-0.006834,-0.007819,0.010061,0.469925,0.229784,0.375355,0.732822,0.010608,-0.122543,0.278879,-0.009793,-0.115028,0.30026,-0.010456,-0.091412,0.256955,-0.014276,0,0,0,0,0,0,0,0,1,0,0,0,0,0,0
1578,'2025/06/30 16:27:22:431',70,0.517655,-0.031255,-0.0039,-0.006834,-0.007819,0.010061,0.469925,0.229784,0.375355,0.732822,0.010608,-0.122543,0.278879,-0.009793,-0.115028,0.30026,-0.010456,-0.091412,0.256955,-0.014276,0,0,0,0,0,0,0,0,1,0,0,0,0,0,0
1579,'2025/06/30 16:27:22:436',70,0.517655,-0.031255,-0.0039,-0.006834,-0.007819,0.010061,0.469925,0.229784,0.375355,0.732822,0.010608,-0.122543,0.278879,-0.009793,-0.115028,0.30026,-0.010456,-0.091412,0.256955,-0.014276,0,0,0,0,0,0,0,0,1,0,0,0,0,0,0
1580,'2025/06/30 16:27:22:442',70,0.517655,-0.031255,-0.0039,-0.006834,-0.007819,0.010061,0.469925,0.229784,0.375355,0.732822,0.010608,-0.122543,0.278879,-0.009793,-0.115028,0.30026,-0.010456,-0.091412,0.256955,-0.014276,0,0,0,0,0,0,0,0,1,0,0,0,0,0,0
1581,'2025/06/30 16:27:22:448',70,0.517655,-0.031255,-0.0039,-0.006834,-0.007819,0.010061,0.469925,0.229784,0.375355,0.732822,0.010608,-0.122543,0.278879,-0.009793,-0.115028,0.30026,-0.010456,-0.091412,0.256955,-0.014276,0,0,0,0,0,0,0,0,1,0,0,0,0,0,0
1582,'2025/06/30 16:27:22:452',70,0.517655,-0.031255,-0.0039,-0.006834,-0.007819,0.010061,0.469925,0.229784,0.375355,0.732822,0.010608,-0.122543,0.278879,-0.009793,-0.115028,0.30026,-0.010456,-0.091412,0.256955,-0.014276,0,0,0,0,0,0,0,0,1,0,0,0,0,0,0
1583,'2025/06/30 16:27:22:457',70,0.517655,-0.031255,-0.0039,-0.006834,-0.007819,0.010061,0.469925,0.229784,0.375355,0.732822,0.010608,-0.122543,0.278879,-0.009793,-0.115028,0.30026,-0.010456,-0.091412,0.256955,-0.014276,0,0,0,0,0,0,0,0,1,0,0,0,0,0,0
1584,'2025/06/30 16:27:22:462',70,0.517655,-0.031255,-0.0039,-0.006834,-0.007819,0.010061,0.469925,0.229784,0.375355,0.732822,0.010608,-0.122543,0.278879,-0.009793,-0.115028,0.30026,-0.010456,-0.091412,0.256955,-0.014276,0,0,0,0,0,0,0,0,1,0,0,0,0,0,0
1585,'2025/06/30 16:27:22:468',70,0.517655,-0.031255,-0.0039,-0.006834,-0.007819,0.010061,0.469925,0.229784,0.375355,0.732822,0.010608,-0.122543,0.278879,-0.009793,-0.115028,0.30026,-0.010456,-0.091412,0.256955,-0.014276,0,0,0,0,0,0,0,0,1,0,0,0,0,0,0
1586,'2025/06/30 16:27:22:473',70,0.517655,-0.031255,-0.0039,-0.006834,-0.007819,0.010061,0.469925,0.229784,0.375355,0.732822,0.010608,-0.122543,0.278879,-0.009793,-0.115028,0.30026,-0.010456,-0.091412,0.256955,-0.014276,0,0,0,0,0,0,0,0,1,0,0,0,0,0,0
1587,'2025/06/30 16:27:22:480',70,0.517655,-0.031255,-0.0039,-0.006834,-0.007819,0.010061,0.469925,0.229784,0.375355,0.732822,0.010608,-0.122543,0.278879,-0.009793,-0.115028,0.30026,-0.010456,-0.091412,0.256955,-0.014276,0,0,0,0,0,0,0,0,1,0,0,0,0,0,0
1588,'2025/06/30 16:27:22:485',70,0.517655,-0.031255,-0.0039,-0.006834,-0.007819,0.010061,0.469925,0.229784,0.375355,0.732822,0.010608,-0.122543,0.278879,-0.009793,-0.115028,0.30026,-0.010456,-0.091412,0.256955,-0.014276,0,0,0,0,0,0,0,0,1,0,0,0,0,0,0
1589,'2025/06/30 16:27:22:490',70,0.517655,-0.031255,-0.0039,-0.006834,-0.007819,0.010061,0.469925,0.229784,0.375355,0.732822,0.010608,-0.122543,0.278879,-0.009793,-0.115028,0.30026,-0.010456,-0.091412,0.256955,-0.014276,0,0,0,0,0,0,0,0,1,0,0,0,0,0,0
1590,'2025/06/30 16:27:22:495',70,0.517655,-0.031255,-0.0039,-0.006834,-0.007819,0.010061,0.469925,0.229784,0.375355,0.732822,0.010608,-0.122543,0.278879,-0.009793,-0.115028,0.30026,-0.010456,-0.091412,0.256955,-0.014276,0,0,0,0,0,0,0,0,1,0,0,0,0,0,0
1591,'2025/06/30 16:27:22:500',70,0.517655,-0.031255,-0.0039,-0.006834,-0.007819,0.010061,0.469925,0.229784,0.375355,0.732822,0.010608,-0.122543,0.278879,-0.009793,-0.115028,0.30026,-0.010456,-0.091412,0.256955,-0.014276,0,0,0,0,0,0,0,0,1,0,0,0,0,0,0
1592,'2025/06/30 16:27:22:506',70,0.517655,-0.031255,-0.0039,-0.006834,-0.007819,0.010061,0.469925,0.229784,0.375355,0.732822,0.010608,-0.122543,0.278879,-0.009793,-0.115028,0.30026,-0.010456,-0.091412,0.256955,-0.014276,0,0,0,0,0,0,0,0,1,0,0,0,0,0,0
1593,'2025/06/30 16:27:22:512',70,0.517655,-0.031255,-0.0039,-0.006834,-0.007819,0.010061,0.469925,0.229784,0.375355,0.732822,0.010608,-0.122543,0.278879,-0.009793,-0.115028,0.30026,-0.010456,-0.091412,0.256955,-0.014276,0,0,0,0,0,0,0,0,1,0,0,0,0,0,0
1594,'2025/06/30 16:27:22:517',70,0.517655,-0.031255,-0.0039,-0.006834,-0.007819,0.010061,0.469925,0.229784,0.375355,0.732822,0.010608,-0.122543,0.278879,-0.009793,-0.115028,0.30026,-0.010456,-0.091412,0.256955,-0.014276,0,0,0,0,0,0,0,0,1,0,0,0,0,0,0
1595,'2025/06/30 16:27:22:522',70,0.517655,-0.031255,-0.0039,-0.006834,-0.007819,0.010061,0.469925,0.229784,0.375355,0.732822,0.010608,-0.122543,0.278879,-0.009793,-0.115028,0.30026,-0.010456,-0.091412,0.256955,-0.014276,0,0,0,0,0,0,0,0,1,0,0,0,0,0,0
1596,'2025/06/30 16:27:22:528',70,0.517655,-0.031255,-0.0039,-0.006834,-0.007819,0.010061,0.469925,0.229784,0.375355,0.732822,0.010608,-0.122543,0.278879,-0.009793,-0.115028,0.30026,-0.010456,-0.091412,0.256955,-0.014276,0,0,0,0,0,0,0,0,1,0,0,0,0,0,0
1597,'2025/06/30 16:27:22:533',70,0.517655,-0.031255,-0.0039,-0.006834,-0.007819,0.010061,0.469925,0.229784,0.375355,0.732822,0.010608,-0.122543,0.278879,-0.009793,-0.115028,0.30026,-0.010456,-0.091412,0.256955,-0.014276,0,0,0,0,0,0,0,0,1,0,0,0,0,0,0
1598,'2025/06/30 16:27:22:538',70,0.517655,-0.031255,-0.0039,-0.006834,-0.007819,0.010061,0.469925,0.229784,0.375355,0.732822,0.010608,-0.122543,0.278879,-0.009793,-0.115028,0.30026,-0.010456,-0.091412,0.256955,-0.014276,0,0,0,0,0,0,0,0,1,0,0,0,0,0,0
1599,'2025/06/30 16:27:22:543',70,0.517655,-0.031255,-0.0039,-0.006834,-0.007819,0.010061,0.469925,0.229784,0.375355,0.732822,0.010608,-0.122543,0.278879,-0.009793,-0.115028,0.30026,-0.010456,-0.091412,0.256955,-0.014276,0,0,0,0,0,0,0,0,1,0,0,0,0,0,0
1600,'2025/06/30 16:27:22:550',70,0.517655,-0.031255,-0.0039,-0.006834,-0.007819,0.010061,0.469925,0.229784,0.375355,0.732822,0.010608,-0.122543,0.278879,-0.009793,-0.115028,0.30026,-0.010456,-0.091412,0.256955,-0.014276,0,0,0,0,0,0,0,0,1,0,0,0,0,0,0
1601,'2025/06/30 16:27:22:554',70,0.517655,-0.031255,-0.0039,-0.006834,-0.007819,0.010061,0.469925,0.229784,0.375355,0.732822,0.010608,-0.122543,0.278879,-0.009793,-0.115028,0.30026,-0.010456,-0.091412,0.256955,-0.014276,0,0,0,0,0,0,0,0,1,0,0,0,0,0,0
1602,'2025/06/30 16:27:22:560',70,0.517655,-0.031255,-0.0039,-0.006834,-0.007819,0.010061,0.469925,0.229784,0.375355,0.732822,0.010608,-0.122543,0.278879,-0.009793,-0.115028,0.30026,-0.010456,-0.091412,0.256955,-0.014276,0,0,0,0,0,0,0,0,1,0,0,0,0,0,0
1603,'2025/06/30 16:28:08:554',71,0.12417,0.039098,-0.078159,-0.086194,-0.063885,0.268992,0.461008,0.571972,0.762255,0.698977,-0.090292,0.7397,0.675031,0.011367,0.719656,0.711803,0.017589,0.664538,0.781628,-0.00887,0,0,0,0,0,0,0,0,0,1,0,0,0,0,0
1604,'2025/06/30 16:28:08:560',71,0.12417,0.039098,-0.078159,-0.086194,-0.063885,0.268992,0.461008,0.571972,0.762255,0.698977,-0.090292,0.7397,0.675031,0.011367,0.719656,0.711803,0.017589,0.664538,0.781628,-0.00887,0,0,0,0,0,0,0,0,0,1,0,0,0,0,0
1605,'2025/06/30 16:28:08:565',71,0.12417,0.039098,-0.078159,-0.086194,-0.063885,0.268992,0.461008,0.571972,0.762255,0.698977,-0.090292,0.7397,0.675031,0.011367,0.719656,0.711803,0.017589,0.664538,0.781628,-0.00887,0,0,0,0,0,0,0,0,0,1,0,0,0,0,0
1606,'2025/06/30 16:28:08:570',71,0.12417,0.039098,-0.078159,-0.086194,-0.063885,0.268992,0.461008,0.571972,0.762255,0.698977,-0.090292,0.7397,0.675031,0.011367,0.719656,0.711803,0.017589,0.664538,0.781628,-0.00887,0,0,0,0,0,0,0,0,0,1,0,0,0,0,0
1607,'2025/06/30 16:28:08:575',71,0.12417,0.039098,-0.078159,-0.086194,-0.063885,0.268992,0.461008,0.571972,0.762255,0.698977,-0.090292,0.7397,0.675031,0.011367,0.719656,0.711803,0.017589,0.664538,0.781628,-0.00887,0,0,0,0,0,0,0,0,0,1,0,0,0,0,0
1608,'2025/06/30 16:28:08:580',71,0.12417,0.039098,-0.078159,-0.086194,-0.063885,0.268992,0.461008,0.571972,0.762255,0.698977,-0.090292,0.7397,0.675031,0.011367,0.719656,0.711803,0.017589,0.664538,0.781628,-0.00887,0,0,0,0,0,0,0,0,0,1,0,0,0,0,0
1609,'2025/06/30 16:28:08:585',71,0.12417,0.039098,-0.078159,-0.086194,-0.063885,0.268992,0.461008,0.571972,0.762255,0.698977,-0.090292,0.7397,0.675031,0.011367,0.719656,0.711803,0.017589,0.664538,0.781628,-0.00887,0,0,0,0,0,0,0,0,0,1,0,0,0,0,0
1610,'2025/06/30 16:28:08:590',71,0.12417,0.039098,-0.078159,-0.086194,-0.063885,0.268992,0.461008,0.571972,0.762255,0.698977,-0.090292,0.7397,0.675031,0.011367,0.719656,0.711803,0.017589,0.664538,0.781628,-0.00887,0,0,0,0,0,0,0,0,0,1,0,0,0,0,0
1611,'2025/06/30 16:28:08:595',71,0.12417,0.039098,-0.078159,-0.086194,-0.063885,0.268992,0.461008,0.571972,0.762255,0.698977,-0.090292,0.7397,0.675031,0.011367,0.719656,0.711803,0.017589,0.664538,0.781628,-0.00887,0,0,0,0,0,0,0,0,0,1,0,0,0,0,0
1612,'2025/06/30 16:28:08:600',71,0.12417,0.039098,-0.078159,-0.086194,-0.063885,0.268992,0.461008,0.571972,0.762255,0.698977,-0.090292,0.7397,0.675031,0.011367,0.719656,0.711803,0.017589,0.664538,0.781628,-0.00887,0,0,0,0,0,0,0,0,0,1,0,0,0,0,0
1613,'2025/06/30 16:28:08:604',71,0.12417,0.039098,-0.078159,-0.086194,-0.063885,0.268992,0.461008,0.571972,0.762255,0.698977,-0.090292,0.7397,0.675031,0.011367,0.719656,0.711803,0.017589,0.664538,0.781628,-0.00887,0,0,0,0,0,0,0,0,0,1,0,0,0,0,0
1614,'2025/06/30 16:28:08:609',71,0.12417,0.039098,-0.078159,-0.086194,-0.063885,0.268992,0.461008,0.571972,0.762255,0.698977,-0.090292,0.7397,0.675031,0.011367,0.719656,0.711803,0.017589,0.664538,0.781628,-0.00887,0,0,0,0,0,0,0,0,0,1,0,0,0,0,0
1615,'2025/06/30 16:28:08:615',71,0.12417,0.039098,-0.078159,-0.086194,-0.063885,0.268992,0.461008,0.571972,0.762255,0.698977,-0.090292,0.7397,0.675031,0.011367,0.719656,0.711803,0.017589,0.664538,0.781628,-0.00887,0,0,0,0,0,0,0,0,0,1,0,0,0,0,0
1616,'2025/06/30 16:28:08:620',71,0.12417,0.039098,-0.078159,-0.086194,-0.063885,0.268992,0.461008,0.571972,0.762255,0.698977,-0.090292,0.7397,0.675031,0.011367,0.719656,0.711803,0.017589,0.664538,0.781628,-0.00887,0,0,0,0,0,0,0,0,0,1,0,0,0,0,0
1617,'2025/06/30 16:28:08:626',71,0.12417,0.039098,-0.078159,-0.086194,-0.063885,0.268992,0.461008,0.571972,0.762255,0.698977,-0.090292,0.7397,0.675031,0.011367,0.719656,0.711803,0.017589,0.664538,0.781628,-0.00887,0,0,0,0,0,0,0,0,0,1,0,0,0,0,0
1618,'2025/06/30 16:28:08:631',71,0.12417,0.039098,-0.078159,-0.086194,-0.063885,0.268992,0.461008,0.571972,0.762255,0.698977,-0.090292,0.7397,0.675031,0.011367,0.719656,0.711803,0.017589,0.664538,0.781628,-0.00887,0,0,0,0,0,0,0,0,0,1,0,0,0,0,0
1619,'2025/06/30 16:28:08:636',71,0.12417,0.039098,-0.078159,-0.086194,-0.063885,0.268992,0.461008,0.571972,0.762255,0.698977,-0.090292,0.7397,0.675031,0.011367,0.719656,0.711803,0.017589,0.664538,0.781628,-0.00887,0,0,0,0,0,0,0,0,0,1,0,0,0,0,0
1620,'2025/06/30 16:28:08:642',71,0.12417,0.039098,-0.078159,-0.086194,-0.063885,0.268992,0.461008,0.571972,0.762255,0.698977,-0.090292,0.7397,0.675031,0.011367,0.719656,0.711803,0.017589,0.664538,0.781628,-0.00887,0,0,0,0,0,0,0,0,0,1,0,0,0,0,0
1621,'2025/06/30 16:28:08:647',71,0.12417,0.039098,-0.078159,-0.086194,-0.063885,0.268992,0.461008,0.571972,0.762255,0.698977,-0.090292,0.7397,0.675031,0.011367,0.719656,0.711803,0.017589,0.664538,0.781628,-0.00887,0,0,0,0,0,0,0,0,0,1,0,0,0,0,0
1622,'2025/06/30 16:28:08:653',71,0.12417,0.039098,-0.078159,-0.086194,-0.063885,0.268992,0.461008,0.571972,0.762255,0.698977,-0.090292,0.7397,0.675031,0.011367,0.719656,0.711803,0.017589,0.664538,0.781628,-0.00887,0,0,0,0,0,0,0,0,0,1,0,0,0,0,0
1623,'2025/06/30 16:28:08:659',71,0.12417,0.039098,-0.078159,-0.086194,-0.063885,0.268992,0.461008,0.571972,0.762255,0.698977,-0.090292,0.7397,0.675031,0.011367,0.719656,0.711803,0.017589,0.664538,0.781628,-0.00887,0,0,0,0,0,0,0,0,0,1,0,0,0,0,0
1624,'2025/06/30 16:28:08:664',71,0.12417,0.039098,-0.078159,-0.086194,-0.063885,0.268992,0.461008,0.571972,0.762255,0.698977,-0.090292,0.7397,0.675031,0.011367,0.719656,0.711803,0.017589,0.664538,0.781628,-0.00887,0,0,0,0,0,0,0,0,0,1,0,0,0,0,0
1625,'2025/06/30 16:28:08:669',71,0.12417,0.039098,-0.078159,-0.086194,-0.063885,0.268992,0.461008,0.571972,0.762255,0.698977,-0.090292,0.7397,0.675031,0.011367,0.719656,0.711803,0.017589,0.664538,0.781628,-0.00887,0,0,0,0,0,0,0,0,0,1,0,0,0,0,0
1626,'2025/06/30 16:28:08:673',71,0.12417,0.039098,-0.078159,-0.086194,-0.063885,0.268992,0.461008,0.571972,0.762255,0.698977,-0.090292,0.7397,0.675031,0.011367,0.719656,0.711803,0.017589,0.664538,0.781628,-0.00887,0,0,0,0,0,0,0,0,0,1,0,0,0,0,0
1627,'2025/06/30 16:28:08:680',71,0.12417,0.039098,-0.078159,-0.086194,-0.063885,0.268992,0.461008,0.571972,0.762255,0.698977,-0.090292,0.7397,0.675031,0.011367,0.719656,0.711803,0.017589,0.664538,0.781628,-0.00887,0,0,0,0,0,0,0,0,0,1,0,0,0,0,0
1628,'2025/06/30 16:28:08:686',71,0.12417,0.039098,-0.078159,-0.086194,-0.063885,0.268992,0.461008,0.571972,0.762255,0.698977,-0.090292,0.7397,0.675031,0.011367,0.719656,0.711803,0.017589,0.664538,0.781628,-0.00887,0,0,0,0,0,0,0,0,0,1,0,0,0,0,0
1629,'2025/06/30 16:28:11:256',72,0.155141,0.039098,-0.078159,-0.086194,-0.063885,0.209692,0.420769,0.516124,0.762255,0.698977,-0.090292,0.7397,0.675031,0.011367,0.719656,0.711803,0.017589,0.664538,0.781628,-0.00887,0,0,0,0,0,0,0,0,0,1,0,0,0,0,0
1630,'2025/06/30 16:28:11:262',72,0.155141,0.039098,-0.078159,-0.086194,-0.063885,0.209692,0.420769,0.516124,0.762255,0.698977,-0.090292,0.7397,0.675031,0.011367,0.719656,0.711803,0.017589,0.664538,0.781628,-0.00887,0,0,0,0,0,0,0,0,0,1,0,0,0,0,0
1631,'2025/06/30 16:28:11:267',72,0.155141,0.039098,-0.078159,-0.086194,-0.063885,0.209692,0.420769,0.516124,0.762255,0.698977,-0.090292,0.7397,0.675031,0.011367,0.719656,0.711803,0.017589,0.664538,0.781628,-0.00887,0,0,0,0,0,0,0,0,0,1,0,0,0,0,0
1632,'2025/06/30 16:28:11:272',72,0.155141,0.039098,-0.078159,-0.086194,-0.063885,0.209692,0.420769,0.516124,0.762255,0.698977,-0.090292,0.7397,0.675031,0.011367,0.719656,0.711803,0.017589,0.664538,0.781628,-0.00887,0,0,0,0,0,0,0,0,0,1,0,0,0,0,0
1633,'2025/06/30 16:28:11:277',72,0.155141,0.039098,-0.078159,-0.086194,-0.063885,0.209692,0.420769,0.516124,0.762255,0.698977,-0.090292,0.7397,0.675031,0.011367,0.719656,0.711803,0.017589,0.664538,0.781628,-0.00887,0,0,0,0,0,0,0,0,0,1,0,0,0,0,0
1634,'2025/06/30 16:28:11:281',72,0.155141,0.039098,-0.078159,-0.086194,-0.063885,0.209692,0.420769,0.516124,0.762255,0.698977,-0.090292,0.7397,0.675031,0.011367,0.719656,0.711803,0.017589,0.664538,0.781628,-0.00887,0,0,0,0,0,0,0,0,0,1,0,0,0,0,0
1635,'2025/06/30 16:28:11:286',72,0.155141,0.039098,-0.078159,-0.086194,-0.063885,0.209692,0.420769,0.516124,0.762255,0.698977,-0.090292,0.7397,0.675031,0.011367,0.719656,0.711803,0.017589,0.664538,0.781628,-0.00887,0,0,0,0,0,0,0,0,0,1,0,0,0,0,0
1636,'2025/06/30 16:28:11:291',72,0.155141,0.039098,-0.078159,-0.086194,-0.063885,0.209692,0.420769,0.516124,0.762255,0.698977,-0.090292,0.7397,0.675031,0.011367,0.719656,0.711803,0.017589,0.664538,0.781628,-0.00887,0,0,0,0,0,0,0,0,0,1,0,0,0,0,0
1637,'2025/06/30 16:28:11:297',72,0.155141,0.039098,-0.078159,-0.086194,-0.063885,0.209692,0.420769,0.516124,0.762255,0.698977,-0.090292,0.7397,0.675031,0.011367,0.719656,0.711803,0.017589,0.664538,0.781628,-0.00887,0,0,0,0,0,0,0,0,0,1,0,0,0,0,0
1638,'2025/06/30 16:28:11:302',72,0.155141,0.039098,-0.078159,-0.086194,-0.063885,0.209692,0.420769,0.516124,0.762255,0.698977,-0.090292,0.7397,0.675031,0.011367,0.719656,0.711803,0.017589,0.664538,0.781628,-0.00887,0,0,0,0,0,0,0,0,0,1,0,0,0,0,0
1639,'2025/06/30 16:28:11:307',72,0.155141,0.039098,-0.078159,-0.086194,-0.063885,0.209692,0.420769,0.516124,0.762255,0.698977,-0.090292,0.7397,0.675031,0.011367,0.719656,0.711803,0.017589,0.664538,0.781628,-0.00887,0,0,0,0,0,0,0,0,0,1,0,0,0,0,0
1640,'2025/06/30 16:28:11:313',72,0.155141,0.039098,-0.078159,-0.086194,-0.063885,0.209692,0.420769,0.516124,0.762255,0.698977,-0.090292,0.7397,0.675031,0.011367,0.719656,0.711803,0.017589,0.664538,0.781628,-0.00887,0,0,0,0,0,0,0,0,0,1,0,0,0,0,0
1641,'2025/06/30 16:28:11:318',72,0.155141,0.039098,-0.078159,-0.086194,-0.063885,0.209692,0.420769,0.516124,0.762255,0.698977,-0.090292,0.7397,0.675031,0.011367,0.719656,0.711803,0.017589,0.664538,0.781628,-0.00887,0,0,0,0,0,0,0,0,0,1,0,0,0,0,0
1642,'2025/06/30 16:28:11:322',72,0.155141,0.039098,-0.078159,-0.086194,-0.063885,0.209692,0.420769,0.516124,0.762255,0.698977,-0.090292,0.7397,0.675031,0.011367,0.719656,0.711803,0.017589,0.664538,0.781628,-0.00887,0,0,0,0,0,0,0,0,0,1,0,0,0,0,0
1643,'2025/06/30 16:28:11:327',72,0.155141,0.039098,-0.078159,-0.086194,-0.063885,0.209692,0.420769,0.516124,0.762255,0.698977,-0.090292,0.7397,0.675031,0.011367,0.719656,0.711803,0.017589,0.664538,0.781628,-0.00887,0,0,0,0,0,0,0,0,0,1,0,0,0,0,0
1644,'2025/06/30 16:28:11:333',72,0.155141,0.039098,-0.078159,-0.086194,-0.063885,0.209692,0.420769,0.516124,0.762255,0.698977,-0.090292,0.7397,0.675031,0.011367,0.719656,0.711803,0.017589,0.664538,0.781628,-0.00887,0,0,0,0,0,0,0,0,0,1,0,0,0,0,0
1645,'2025/06/30 16:28:11:338',72,0.155141,0.039098,-0.078159,-0.086194,-0.063885,0.209692,0.420769,0.516124,0.762255,0.698977,-0.090292,0.7397,0.675031,0.011367,0.719656,0.711803,0.017589,0.664538,0.781628,-0.00887,0,0,0,0,0,0,0,0,0,1,0,0,0,0,0
1646,'2025/06/30 16:28:11:343',72,0.155141,0.039098,-0.078159,-0.086194,-0.063885,0.209692,0.420769,0.516124,0.762255,0.698977,-0.090292,0.7397,0.675031,0.011367,0.719656,0.711803,0.017589,0.664538,0.781628,-0.00887,0,0,0,0,0,0,0,0,0,1,0,0,0,0,0
1647,'2025/06/30 16:28:11:348',72,0.155141,0.039098,-0.078159,-0.086194,-0.063885,0.209692,0.420769,0.516124,0.762255,0.698977,-0.090292,0.7397,0.675031,0.011367,0.719656,0.711803,0.017589,0.664538,0.781628,-0.00887,0,0,0,0,0,0,0,0,0,1,0,0,0,0,0
1648,'2025/06/30 16:28:11:354',72,0.155141,0.039098,-0.078159,-0.086194,-0.063885,0.209692,0.420769,0.516124,0.762255,0.698977,-0.090292,0.7397,0.675031,0.011367,0.719656,0.711803,0.017589,0.664538,0.781628,-0.00887,0,0,0,0,0,0,0,0,0,1,0,0,0,0,0
1649,'2025/06/30 16:28:11:359',72,0.155141,0.039098,-0.078159,-0.086194,-0.063885,0.209692,0.420769,0.516124,0.762255,0.698977,-0.090292,0.7397,0.675031,0.011367,0.719656,0.711803,0.017589,0.664538,0.781628,-0.00887,0,0,0,0,0,0,0,0,0,1,0,0,0,0,0
1650,'2025/06/30 16:28:11:363',72,0.155141,0.039098,-0.078159,-0.086194,-0.063885,0.209692,0.420769,0.516124,0.762255,0.698977,-0.090292,0.7397,0.675031,0.011367,0.719656,0.711803,0.017589,0.664538,0.781628,-0.00887,0,0,0,0,0,0,0,0,0,1,0,0,0,0,0
1651,'2025/06/30 16:28:11:368',72,0.155141,0.039098,-0.078159,-0.086194,-0.063885,0.209692,0.420769,0.516124,0.762255,0.698977,-0.090292,0.7397,0.675031,0.011367,0.719656,0.711803,0.017589,0.664538,0.781628,-0.00887,0,0,0,0,0,0,0,0,0,1,0,0,0,0,0
1652,'2025/06/30 16:28:11:374',72,0.155141,0.039098,-0.078159,-0.086194,-0.063885,0.209692,0.420769,0.516124,0.762255,0.698977,-0.090292,0.7397,0.675031,0.011367,0.719656,0.711803,0.017589,0.664538,0.781628,-0.00887,0,0,0,0,0,0,0,0,0,1,0,0,0,0,0
1653,'2025/06/30 16:28:11:379',72,0.155141,0.039098,-0.078159,-0.086194,-0.063885,0.209692,0.420769,0.516124,0.762255,0.698977,-0.090292,0.7397,0.675031,0.011367,0.719656,0.711803,0.017589,0.664538,0.781628,-0.00887,0,0,0,0,0,0,0,0,0,1,0,0,0,0,0
1654,'2025/06/30 16:28:13:537',73,0.405457,0.039098,-0.078159,-0.086194,-0.063885,0.082577,0.424298,0.30086,0.762255,0.698977,-0.090292,0.7397,0.675031,0.011367,0.719656,0.711803,0.017589,0.664538,0.781628,-0.00887,0,0,0,0,0,0,0,0,0,1,0,0,0,0,0
1655,'2025/06/30 16:28:13:543',73,0.405457,0.039098,-0.078159,-0.086194,-0.063885,0.082577,0.424298,0.30086,0.762255,0.698977,-0.090292,0.7397,0.675031,0.011367,0.719656,0.711803,0.017589,0.664538,0.781628,-0.00887,0,0,0,0,0,0,0,0,0,1,0,0,0,0,0
1656,'2025/06/30 16:28:13:549',73,0.405457,0.039098,-0.078159,-0.086194,-0.063885,0.082577,0.424298,0.30086,0.762255,0.698977,-0.090292,0.7397,0.675031,0.011367,0.719656,0.711803,0.017589,0.664538,0.781628,-0.00887,0,0,0,0,0,0,0,0,0,1,0,0,0,0,0
1657,'2025/06/30 16:28:13:553',73,0.405457,0.039098,-0.078159,-0.086194,-0.063885,0.082577,0.424298,0.30086,0.762255,0.698977,-0.090292,0.7397,0.675031,0.011367,0.719656,0.711803,0.017589,0.664538,0.781628,-0.00887,0,0,0,0,0,0,0,0,0,1,0,0,0,0,0
1658,'2025/06/30 16:28:13:559',73,0.405457,0.039098,-0.078159,-0.086194,-0.063885,0.082577,0.424298,0.30086,0.762255,0.698977,-0.090292,0.7397,0.675031,0.011367,0.719656,0.711803,0.017589,0.664538,0.781628,-0.00887,0,0,0,0,0,0,0,0,0,1,0,0,0,0,0
1659,'2025/06/30 16:28:13:563',73,0.405457,0.039098,-0.078159,-0.086194,-0.063885,0.082577,0.424298,0.30086,0.762255,0.698977,-0.090292,0.7397,0.675031,0.011367,0.719656,0.711803,0.017589,0.664538,0.781628,-0.00887,0,0,0,0,0,0,0,0,0,1,0,0,0,0,0
1660,'2025/06/30 16:28:13:570',73,0.405457,0.039098,-0.078159,-0.086194,-0.063885,0.082577,0.424298,0.30086,0.762255,0.698977,-0.090292,0.7397,0.675031,0.011367,0.719656,0.711803,0.017589,0.664538,0.781628,-0.00887,0,0,0,0,0,0,0,0,0,1,0,0,0,0,0
1661,'2025/06/30 16:28:13:575',73,0.405457,0.039098,-0.078159,-0.086194,-0.063885,0.082577,0.424298,0.30086,0.762255,0.698977,-0.090292,0.7397,0.675031,0.011367,0.719656,0.711803,0.017589,0.664538,0.781628,-0.00887,0,0,0,0,0,0,0,0,0,1,0,0,0,0,0
1662,'2025/06/30 16:28:13:580',73,0.405457,0.039098,-0.078159,-0.086194,-0.063885,0.082577,0.424298,0.30086,0.762255,0.698977,-0.090292,0.7397,0.675031,0.011367,0.719656,0.711803,0.017589,0.664538,0.781628,-0.00887,0,0,0,0,0,0,0,0,0,1,0,0,0,0,0
1663,'2025/06/30 16:28:13:587',73,0.405457,0.039098,-0.078159,-0.086194,-0.063885,0.082577,0.424298,0.30086,0.762255,0.698977,-0.090292,0.7397,0.675031,0.011367,0.719656,0.711803,0.017589,0.664538,0.781628,-0.00887,0,0,0,0,0,0,0,0,0,1,0,0,0,0,0
1664,'2025/06/30 16:28:13:591',73,0.405457,0.039098,-0.078159,-0.086194,-0.063885,0.082577,0.424298,0.30086,0.762255,0.698977,-0.090292,0.7397,0.675031,0.011367,0.719656,0.711803,0.017589,0.664538,0.781628,-0.00887,0,0,0,0,0,0,0,0,0,1,0,0,0,0,0
1665,'2025/06/30 16:28:13:597',73,0.405457,0.039098,-0.078159,-0.086194,-0.063885,0.082577,0.424298,0.30086,0.762255,0.698977,-0.090292,0.7397,0.675031,0.011367,0.719656,0.711803,0.017589,0.664538,0.781628,-0.00887,0,0,0,0,0,0,0,0,0,1,0,0,0,0,0
1666,'2025/06/30 16:28:13:603',73,0.405457,0.039098,-0.078159,-0.086194,-0.063885,0.082577,0.424298,0.30086,0.762255,0.698977,-0.090292,0.7397,0.675031,0.011367,0.719656,0.711803,0.017589,0.664538,0.781628,-0.00887,0,0,0,0,0,0,0,0,0,1,0,0,0,0,0
1667,'2025/06/30 16:28:13:608',73,0.405457,0.039098,-0.078159,-0.086194,-0.063885,0.082577,0.424298,0.30086,0.762255,0.698977,-0.090292,0.7397,0.675031,0.011367,0.719656,0.711803,0.017589,0.664538,0.781628,-0.00887,0,0,0,0,0,0,0,0,0,1,0,0,0,0,0
1668,'2025/06/30 16:28:13:613',73,0.405457,0.039098,-0.078159,-0.086194,-0.063885,0.082577,0.424298,0.30086,0.762255,0.698977,-0.090292,0.7397,0.675031,0.011367,0.719656,0.711803,0.017589,0.664538,0.781628,-0.00887,0,0,0,0,0,0,0,0,0,1,0,0,0,0,0
1669,'2025/06/30 16:28:13:619',73,0.405457,0.039098,-0.078159,-0.086194,-0.063885,0.082577,0.424298,0.30086,0.762255,0.698977,-0.090292,0.7397,0.675031,0.011367,0.719656,0.711803,0.017589,0.664538,0.781628,-0.00887,0,0,0,0,0,0,0,0,0,1,0,0,0,0,0
1670,'2025/06/30 16:28:13:623',73,0.405457,0.039098,-0.078159,-0.086194,-0.063885,0.082577,0.424298,0.30086,0.762255,0.698977,-0.090292,0.7397,0.675031,0.011367,0.719656,0.711803,0.017589,0.664538,0.781628,-0.00887,0,0,0,0,0,0,0,0,0,1,0,0,0,0,0
1671,'2025/06/30 16:28:13:628',73,0.405457,0.039098,-0.078159,-0.086194,-0.063885,0.082577,0.424298,0.30086,0.762255,0.698977,-0.090292,0.7397,0.675031,0.011367,0.719656,0.711803,0.017589,0.664538,0.781628,-0.00887,0,0,0,0,0,0,0,0,0,1,0,0,0,0,0
1672,'2025/06/30 16:28:13:632',73,0.405457,0.039098,-0.078159,-0.086194,-0.063885,0.082577,0.424298,0.30086,0.762255,0.698977,-0.090292,0.7397,0.675031,0.011367,0.719656,0.711803,0.017589,0.664538,0.781628,-0.00887,0,0,0,0,0,0,0,0,0,1,0,0,0,0,0
1673,'2025/06/30 16:28:13:638',73,0.405457,0.039098,-0.078159,-0.086194,-0.063885,0.082577,0.424298,0.30086,0.762255,0.698977,-0.090292,0.7397,0.675031,0.011367,0.719656,0.711803,0.017589,0.664538,0.781628,-0.00887,0,0,0,0,0,0,0,0,0,1,0,0,0,0,0
1674,'2025/06/30 16:28:13:644',73,0.405457,0.039098,-0.078159,-0.086194,-0.063885,0.082577,0.424298,0.30086,0.762255,0.698977,-0.090292,0.7397,0.675031,0.011367,0.719656,0.711803,0.017589,0.664538,0.781628,-0.00887,0,0,0,0,0,0,0,0,0,1,0,0,0,0,0
1675,'2025/06/30 16:28:13:648',73,0.405457,0.039098,-0.078159,-0.086194,-0.063885,0.082577,0.424298,0.30086,0.762255,0.698977,-0.090292,0.7397,0.675031,0.011367,0.719656,0.711803,0.017589,0.664538,0.781628,-0.00887,0,0,0,0,0,0,0,0,0,1,0,0,0,0,0
1676,'2025/06/30 16:28:13:655',73,0.405457,0.039098,-0.078159,-0.086194,-0.063885,0.082577,0.424298,0.30086,0.762255,0.698977,-0.090292,0.7397,0.675031,0.011367,0.719656,0.711803,0.017589,0.664538,0.781628,-0.00887,0,0,0,0,0,0,0,0,0,1,0,0,0,0,0
1677,'2025/06/30 16:28:15:737',74,0.247799,0.039098,-0.078159,-0.086194,-0.063885,0.151964,0.400041,0.412347,0.762255,0.698977,-0.090292,0.7397,0.675031,0.011367,0.719656,0.711803,0.017589,0.664538,0.781628,-0.00887,0,0,0,0,0,0,0,0,0,1,0,0,0,0,0
1678,'2025/06/30 16:28:15:742',74,0.247799,0.039098,-0.078159,-0.086194,-0.063885,0.151964,0.400041,0.412347,0.762255,0.698977,-0.090292,0.7397,0.675031,0.011367,0.719656,0.711803,0.017589,0.664538,0.781628,-0.00887,0,0,0,0,0,0,0,0,0,1,0,0,0,0,0
1679,'2025/06/30 16:28:15:746',74,0.247799,0.039098,-0.078159,-0.086194,-0.063885,0.151964,0.400041,0.412347,0.762255,0.698977,-0.090292,0.7397,0.675031,0.011367,0.719656,0.711803,0.017589,0.664538,0.781628,-0.00887,0,0,0,0,0,0,0,0,0,1,0,0,0,0,0
1680,'2025/06/30 16:28:15:751',74,0.247799,0.039098,-0.078159,-0.086194,-0.063885,0.151964,0.400041,0.412347,0.762255,0.698977,-0.090292,0.7397,0.675031,0.011367,0.719656,0.711803,0.017589,0.664538,0.781628,-0.00887,0,0,0,0,0,0,0,0,0,1,0,0,0,0,0
1681,'2025/06/30 16:28:15:756',74,0.247799,0.039098,-0.078159,-0.086194,-0.063885,0.151964,0.400041,0.412347,0.762255,0.698977,-0.090292,0.7397,0.675031,0.011367,0.719656,0.711803,0.017589,0.664538,0.781628,-0.00887,0,0,0,0,0,0,0,0,0,1,0,0,0,0,0
1682,'2025/06/30 16:28:15:760',74,0.247799,0.039098,-0.078159,-0.086194,-0.063885,0.151964,0.400041,0.412347,0.762255,0.698977,-0.090292,0.7397,0.675031,0.011367,0.719656,0.711803,0.017589,0.664538,0.781628,-0.00887,0,0,0,0,0,0,0,0,0,1,0,0,0,0,0
1683,'2025/06/30 16:28:15:767',74,0.247799,0.039098,-0.078159,-0.086194,-0.063885,0.151964,0.400041,0.412347,0.762255,0.698977,-0.090292,0.7397,0.675031,0.011367,0.719656,0.711803,0.017589,0.664538,0.781628,-0.00887,0,0,0,0,0,0,0,0,0,1,0,0,0,0,0
1684,'2025/06/30 16:28:15:772',74,0.247799,0.039098,-0.078159,-0.086194,-0.063885,0.151964,0.400041,0.412347,0.762255,0.698977,-0.090292,0.7397,0.675031,0.011367,0.719656,0.711803,0.017589,0.664538,0.781628,-0.00887,0,0,0,0,0,0,0,0,0,1,0,0,0,0,0
1685,'2025/06/30 16:28:15:778',74,0.247799,0.039098,-0.078159,-0.086194,-0.063885,0.151964,0.400041,0.412347,0.762255,0.698977,-0.090292,0.7397,0.675031,0.011367,0.719656,0.711803,0.017589,0.664538,0.781628,-0.00887,0,0,0,0,0,0,0,0,0,1,0,0,0,0,0
1686,'2025/06/30 16:28:15:785',74,0.247799,0.039098,-0.078159,-0.086194,-0.063885,0.151964,0.400041,0.412347,0.762255,0.698977,-0.090292,0.7397,0.675031,0.011367,0.719656,0.711803,0.017589,0.664538,0.781628,-0.00887,0,0,0,0,0,0,0,0,0,1,0,0,0,0,0
1687,'2025/06/30 16:28:15:790',74,0.247799,0.039098,-0.078159,-0.086194,-0.063885,0.151964,0.400041,0.412347,0.762255,0.698977,-0.090292,0.7397,0.675031,0.011367,0.719656,0.711803,0.017589,0.664538,0.781628,-0.00887,0,0,0,0,0,0,0,0,0,1,0,0,0,0,0
1688,'2025/06/30 16:28:15:794',74,0.247799,0.039098,-0.078159,-0.086194,-0.063885,0.151964,0.400041,0.412347,0.762255,0.698977,-0.090292,0.7397,0.675031,0.011367,0.719656,0.711803,0.017589,0.664538,0.781628,-0.00887,0,0,0,0,0,0,0,0,0,1,0,0,0,0,0
1689,'2025/06/30 16:28:15:799',74,0.247799,0.039098,-0.078159,-0.086194,-0.063885,0.151964,0.400041,0.412347,0.762255,0.698977,-0.090292,0.7397,0.675031,0.011367,0.719656,0.711803,0.017589,0.664538,0.781628,-0.00887,0,0,0,0,0,0,0,0,0,1,0,0,0,0,0
1690,'2025/06/30 16:28:15:803',74,0.247799,0.039098,-0.078159,-0.086194,-0.063885,0.151964,0.400041,0.412347,0.762255,0.698977,-0.090292,0.7397,0.675031,0.011367,0.719656,0.711803,0.017589,0.664538,0.781628,-0.00887,0,0,0,0,0,0,0,0,0,1,0,0,0,0,0
1691,'2025/06/30 16:28:15:809',74,0.247799,0.039098,-0.078159,-0.086194,-0.063885,0.151964,0.400041,0.412347,0.762255,0.698977,-0.090292,0.7397,0.675031,0.011367,0.719656,0.711803,0.017589,0.664538,0.781628,-0.00887,0,0,0,0,0,0,0,0,0,1,0,0,0,0,0
1692,'2025/06/30 16:28:15:814',74,0.247799,0.039098,-0.078159,-0.086194,-0.063885,0.151964,0.400041,0.412347,0.762255,0.698977,-0.090292,0.7397,0.675031,0.011367,0.719656,0.711803,0.017589,0.664538,0.781628,-0.00887,0,0,0,0,0,0,0,0,0,1,0,0,0,0,0
1693,'2025/06/30 16:28:15:820',74,0.247799,0.039098,-0.078159,-0.086194,-0.063885,0.151964,0.400041,0.412347,0.762255,0.698977,-0.090292,0.7397,0.675031,0.011367,0.719656,0.711803,0.017589,0.664538,0.781628,-0.00887,0,0,0,0,0,0,0,0,0,1,0,0,0,0,0
1694,'2025/06/30 16:28:15:826',74,0.247799,0.039098,-0.078159,-0.086194,-0.063885,0.151964,0.400041,0.412347,0.762255,0.698977,-0.090292,0.7397,0.675031,0.011367,0.719656,0.711803,0.017589,0.664538,0.781628,-0.00887,0,0,0,0,0,0,0,0,0,1,0,0,0,0,0
1695,'2025/06/30 16:28:15:831',74,0.247799,0.039098,-0.078159,-0.086194,-0.063885,0.151964,0.400041,0.412347,0.762255,0.698977,-0.090292,0.7397,0.675031,0.011367,0.719656,0.711803,0.017589,0.664538,0.781628,-0.00887,0,0,0,0,0,0,0,0,0,1,0,0,0,0,0
1696,'2025/06/30 16:28:15:836',74,0.247799,0.039098,-0.078159,-0.086194,-0.063885,0.151964,0.400041,0.412347,0.762255,0.698977,-0.090292,0.7397,0.675031,0.011367,0.719656,0.711803,0.017589,0.664538,0.781628,-0.00887,0,0,0,0,0,0,0,0,0,1,0,0,0,0,0
1697,'2025/06/30 16:28:15:841',74,0.247799,0.039098,-0.078159,-0.086194,-0.063885,0.151964,0.400041,0.412347,0.762255,0.698977,-0.090292,0.7397,0.675031,0.011367,0.719656,0.711803,0.017589,0.664538,0.781628,-0.00887,0,0,0,0,0,0,0,0,0,1,0,0,0,0,0
1698,'2025/06/30 16:28:15:845',74,0.247799,0.039098,-0.078159,-0.086194,-0.063885,0.151964,0.400041,0.412347,0.762255,0.698977,-0.090292,0.7397,0.675031,0.011367,0.719656,0.711803,0.017589,0.664538,0.781628,-0.00887,0,0,0,0,0,0,0,0,0,1,0,0,0,0,0
1699,'2025/06/30 16:28:18:402',75,0.373423,0.039098,-0.078159,-0.086194,-0.063885,0.11307,0.480633,0.427787,0.762255,0.698977,-0.090292,0.7397,0.675031,0.011367,0.719656,0.711803,0.017589,0.664538,0.781628,-0.00887,0,0,0,0,0,0,0,0,0,1,0,0,0,0,0
1700,'2025/06/30 16:28:18:407',75,0.373423,0.039098,-0.078159,-0.086194,-0.063885,0.11307,0.480633,0.427787,0.762255,0.698977,-0.090292,0.7397,0.675031,0.011367,0.719656,0.711803,0.017589,0.664538,0.781628,-0.00887,0,0,0,0,0,0,0,0,0,1,0,0,0,0,0
1701,'2025/06/30 16:28:18:412',75,0.373423,0.039098,-0.078159,-0.086194,-0.063885,0.11307,0.480633,0.427787,0.762255,0.698977,-0.090292,0.7397,0.675031,0.011367,0.719656,0.711803,0.017589,0.664538,0.781628,-0.00887,0,0,0,0,0,0,0,0,0,1,0,0,0,0,0
1702,'2025/06/30 16:28:18:417',75,0.373423,0.039098,-0.078159,-0.086194,-0.063885,0.11307,0.480633,0.427787,0.762255,0.698977,-0.090292,0.7397,0.675031,0.011367,0.719656,0.711803,0.017589,0.664538,0.781628,-0.00887,0,0,0,0,0,0,0,0,0,1,0,0,0,0,0
1703,'2025/06/30 16:28:18:422',75,0.373423,0.039098,-0.078159,-0.086194,-0.063885,0.11307,0.480633,0.427787,0.762255,0.698977,-0.090292,0.7397,0.675031,0.011367,0.719656,0.711803,0.017589,0.664538,0.781628,-0.00887,0,0,0,0,0,0,0,0,0,1,0,0,0,0,0
1704,'2025/06/30 16:28:18:428',75,0.373423,0.039098,-0.078159,-0.086194,-0.063885,0.11307,0.480633,0.427787,0.762255,0.698977,-0.090292,0.7397,0.675031,0.011367,0.719656,0.711803,0.017589,0.664538,0.781628,-0.00887,0,0,0,0,0,0,0,0,0,1,0,0,0,0,0
1705,'2025/06/30 16:28:18:432',75,0.373423,0.039098,-0.078159,-0.086194,-0.063885,0.11307,0.480633,0.427787,0.762255,0.698977,-0.090292,0.7397,0.675031,0.011367,0.719656,0.711803,0.017589,0.664538,0.781628,-0.00887,0,0,0,0,0,0,0,0,0,1,0,0,0,0,0
1706,'2025/06/30 16:28:18:439',75,0.373423,0.039098,-0.078159,-0.086194,-0.063885,0.11307,0.480633,0.427787,0.762255,0.698977,-0.090292,0.7397,0.675031,0.011367,0.719656,0.711803,0.017589,0.664538,0.781628,-0.00887,0,0,0,0,0,0,0,0,0,1,0,0,0,0,0
1707,'2025/06/30 16:28:18:445',75,0.373423,0.039098,-0.078159,-0.086194,-0.063885,0.11307,0.480633,0.427787,0.762255,0.698977,-0.090292,0.7397,0.675031,0.011367,0.719656,0.711803,0.017589,0.664538,0.781628,-0.00887,0,0,0,0,0,0,0,0,0,1,0,0,0,0,0
1708,'2025/06/30 16:28:18:451',75,0.373423,0.039098,-0.078159,-0.086194,-0.063885,0.11307,0.480633,0.427787,0.762255,0.698977,-0.090292,0.7397,0.675031,0.011367,0.719656,0.711803,0.017589,0.664538,0.781628,-0.00887,0,0,0,0,0,0,0,0,0,1,0,0,0,0,0
1709,'2025/06/30 16:28:18:457',75,0.373423,0.039098,-0.078159,-0.086194,-0.063885,0.11307,0.480633,0.427787,0.762255,0.698977,-0.090292,0.7397,0.675031,0.011367,0.719656,0.711803,0.017589,0.664538,0.781628,-0.00887,0,0,0,0,0,0,0,0,0,1,0,0,0,0,0
1710,'2025/06/30 16:28:18:463',75,0.373423,0.039098,-0.078159,-0.086194,-0.063885,0.11307,0.480633,0.427787,0.762255,0.698977,-0.090292,0.7397,0.675031,0.011367,0.719656,0.711803,0.017589,0.664538,0.781628,-0.00887,0,0,0,0,0,0,0,0,0,1,0,0,0,0,0
1711,'2025/06/30 16:28:18:468',75,0.373423,0.039098,-0.078159,-0.086194,-0.063885,0.11307,0.480633,0.427787,0.762255,0.698977,-0.090292,0.7397,0.675031,0.011367,0.719656,0.711803,0.017589,0.664538,0.781628,-0.00887,0,0,0,0,0,0,0,0,0,1,0,0,0,0,0
1712,'2025/06/30 16:28:18:473',75,0.373423,0.039098,-0.078159,-0.086194,-0.063885,0.11307,0.480633,0.427787,0.762255,0.698977,-0.090292,0.7397,0.675031,0.011367,0.719656,0.711803,0.017589,0.664538,0.781628,-0.00887,0,0,0,0,0,0,0,0,0,1,0,0,0,0,0
1713,'2025/06/30 16:28:18:478',75,0.373423,0.039098,-0.078159,-0.086194,-0.063885,0.11307,0.480633,0.427787,0.762255,0.698977,-0.090292,0.7397,0.675031,0.011367,0.719656,0.711803,0.017589,0.664538,0.781628,-0.00887,0,0,0,0,0,0,0,0,0,1,0,0,0,0,0
1714,'2025/06/30 16:28:18:483',75,0.373423,0.039098,-0.078159,-0.086194,-0.063885,0.11307,0.480633,0.427787,0.762255,0.698977,-0.090292,0.7397,0.675031,0.011367,0.719656,0.711803,0.017589,0.664538,0.781628,-0.00887,0,0,0,0,0,0,0,0,0,1,0,0,0,0,0
1715,'2025/06/30 16:28:18:489',75,0.373423,0.039098,-0.078159,-0.086194,-0.063885,0.11307,0.480633,0.427787,0.762255,0.698977,-0.090292,0.7397,0.675031,0.011367,0.719656,0.711803,0.017589,0.664538,0.781628,-0.00887,0,0,0,0,0,0,0,0,0,1,0,0,0,0,0
1716,'2025/06/30 16:28:18:495',75,0.373423,0.039098,-0.078159,-0.086194,-0.063885,0.11307,0.480633,0.427787,0.762255,0.698977,-0.090292,0.7397,0.675031,0.011367,0.719656,0.711803,0.017589,0.664538,0.781628,-0.00887,0,0,0,0,0,0,0,0,0,1,0,0,0,0,0
1717,'2025/06/30 16:28:18:500',75,0.373423,0.039098,-0.078159,-0.086194,-0.063885,0.11307,0.480633,0.427787,0.762255,0.698977,-0.090292,0.7397,0.675031,0.011367,0.719656,0.711803,0.017589,0.664538,0.781628,-0.00887,0,0,0,0,0,0,0,0,0,1,0,0,0,0,0
1718,'2025/06/30 16:28:18:506',75,0.373423,0.039098,-0.078159,-0.086194,-0.063885,0.11307,0.480633,0.427787,0.762255,0.698977,-0.090292,0.7397,0.675031,0.011367,0.719656,0.711803,0.017589,0.664538,0.781628,-0.00887,0,0,0,0,0,0,0,0,0,1,0,0,0,0,0
1719,'2025/06/30 16:28:18:512',75,0.373423,0.039098,-0.078159,-0.086194,-0.063885,0.11307,0.480633,0.427787,0.762255,0.698977,-0.090292,0.7397,0.675031,0.011367,0.719656,0.711803,0.017589,0.664538,0.781628,-0.00887,0,0,0,0,0,0,0,0,0,1,0,0,0,0,0
1720,'2025/06/30 16:28:18:519',75,0.373423,0.039098,-0.078159,-0.086194,-0.063885,0.11307,0.480633,0.427787,0.762255,0.698977,-0.090292,0.7397,0.675031,0.011367,0.719656,0.711803,0.017589,0.664538,0.781628,-0.00887,0,0,0,0,0,0,0,0,0,1,0,0,0,0,0
1721,'2025/06/30 16:28:18:524',75,0.373423,0.039098,-0.078159,-0.086194,-0.063885,0.11307,0.480633,0.427787,0.762255,0.698977,-0.090292,0.7397,0.675031,0.011367,0.719656,0.711803,0.017589,0.664538,0.781628,-0.00887,0,0,0,0,0,0,0,0,0,1,0,0,0,0,0
1722,'2025/06/30 16:28:43:591',76,0.373423,-0.030461,-0.078587,-0.086194,-0.104415,0.11307,0.480633,0.427787,0.765664,0.641556,-0.021415,0.745187,0.664931,0.011596,0.719656,0.711803,0.017589,0.755077,0.753832,0.02636,0,0,0,0,0,0,0,0,0,1,0,0,0,0,0
1723,'2025/06/30 16:28:43:600',76,0.373423,-0.030461,-0.078587,-0.086194,-0.104415,0.11307,0.480633,0.427787,0.765664,0.641556,-0.021415,0.745187,0.664931,0.011596,0.719656,0.711803,0.017589,0.755077,0.753832,0.02636,0,0,0,0,0,0,0,0,0,1,0,0,0,0,0
1724,'2025/06/30 16:28:43:608',76,0.373423,-0.030461,-0.078587,-0.086194,-0.104415,0.11307,0.480633,0.427787,0.765664,0.641556,-0.021415,0.745187,0.664931,0.011596,0.719656,0.711803,0.017589,0.755077,0.753832,0.02636,0,0,0,0,0,0,0,0,0,1,0,0,0,0,0
1725,'2025/06/30 16:28:43:617',76,0.373423,-0.030461,-0.078587,-0.086194,-0.104415,0.11307,0.480633,0.427787,0.765664,0.641556,-0.021415,0.745187,0.664931,0.011596,0.719656,0.711803,0.017589,0.755077,0.753832,0.02636,0,0,0,0,0,0,0,0,0,1,0,0,0,0,0
1726,'2025/06/30 16:28:43:626',76,0.373423,-0.030461,-0.078587,-0.086194,-0.104415,0.11307,0.480633,0.427787,0.765664,0.641556,-0.021415,0.745187,0.664931,0.011596,0.719656,0.711803,0.017589,0.755077,0.753832,0.02636,0,0,0,0,0,0,0,0,0,1,0,0,0,0,0
1727,'2025/06/30 16:28:43:633',76,0.373423,-0.030461,-0.078587,-0.086194,-0.104415,0.11307,0.480633,0.427787,0.765664,0.641556,-0.021415,0.745187,0.664931,0.011596,0.719656,0.711803,0.017589,0.755077,0.753832,0.02636,0,0,0,0,0,0,0,0,0,1,0,0,0,0,0
1728,'2025/06/30 16:28:43:643',76,0.373423,-0.030461,-0.078587,-0.086194,-0.104415,0.11307,0.480633,0.427787,0.765664,0.641556,-0.021415,0.745187,0.664931,0.011596,0.719656,0.711803,0.017589,0.755077,0.753832,0.02636,0,0,0,0,0,0,0,0,0,1,0,0,0,0,0
1729,'2025/06/30 16:28:43:654',76,0.373423,-0.030461,-0.078587,-0.086194,-0.104415,0.11307,0.480633,0.427787,0.765664,0.641556,-0.021415,0.745187,0.664931,0.011596,0.719656,0.711803,0.017589,0.755077,0.753832,0.02636,0,0,0,0,0,0,0,0,0,1,0,0,0,0,0
1730,'2025/06/30 16:28:43:663',76,0.373423,-0.030461,-0.078587,-0.086194,-0.104415,0.11307,0.480633,0.427787,0.765664,0.641556,-0.021415,0.745187,0.664931,0.011596,0.719656,0.711803,0.017589,0.755077,0.753832,0.02636,0,0,0,0,0,0,0,0,0,1,0,0,0,0,0
1731,'2025/06/30 16:28:43:673',76,0.373423,-0.030461,-0.078587,-0.086194,-0.104415,0.11307,0.480633,0.427787,0.765664,0.641556,-0.021415,0.745187,0.664931,0.011596,0.719656,0.711803,0.017589,0.755077,0.753832,0.02636,0,0,0,0,0,0,0,0,0,1,0,0,0,0,0
1732,'2025/06/30 16:28:43:682',76,0.373423,-0.030461,-0.078587,-0.086194,-0.104415,0.11307,0.480633,0.427787,0.765664,0.641556,-0.021415,0.745187,0.664931,0.011596,0.719656,0.711803,0.017589,0.755077,0.753832,0.02636,0,0,0,0,0,0,0,0,0,1,0,0,0,0,0
1733,'2025/06/30 16:28:43:692',76,0.373423,-0.030461,-0.078587,-0.086194,-0.104415,0.11307,0.480633,0.427787,0.765664,0.641556,-0.021415,0.745187,0.664931,0.011596,0.719656,0.711803,0.017589,0.755077,0.753832,0.02636,0,0,0,0,0,0,0,0,0,1,0,0,0,0,0
1734,'2025/06/30 16:28:43:702',76,0.373423,-0.030461,-0.078587,-0.086194,-0.104415,0.11307,0.480633,0.427787,0.765664,0.641556,-0.021415,0.745187,0.664931,0.011596,0.719656,0.711803,0.017589,0.755077,0.753832,0.02636,0,0,0,0,0,0,0,0,0,1,0,0,0,0,0
1735,'2025/06/30 16:28:43:711',76,0.373423,-0.030461,-0.078587,-0.086194,-0.104415,0.11307,0.480633,0.427787,0.765664,0.641556,-0.021415,0.745187,0.664931,0.011596,0.719656,0.711803,0.017589,0.755077,0.753832,0.02636,0,0,0,0,0,0,0,0,0,1,0,0,0,0,0
1736,'2025/06/30 16:28:52:232',77,0.373423,0.000807,-0.078587,-0.086194,-0.104415,0.11307,0.480633,0.427787,0.734874,0.716754,-0.050795,0.745187,0.664931,0.011596,0.719656,0.711803,0.017589,0.755077,0.753832,0.02636,0,0,0,0,0,0,0,0,0,1,0,0,0,0,0
1737,'2025/06/30 16:28:52:238',77,0.373423,0.000807,-0.078587,-0.086194,-0.104415,0.11307,0.480633,0.427787,0.734874,0.716754,-0.050795,0.745187,0.664931,0.011596,0.719656,0.711803,0.017589,0.755077,0.753832,0.02636,0,0,0,0,0,0,0,0,0,1,0,0,0,0,0
1738,'2025/06/30 16:28:52:243',77,0.373423,0.000807,-0.078587,-0.086194,-0.104415,0.11307,0.480633,0.427787,0.734874,0.716754,-0.050795,0.745187,0.664931,0.011596,0.719656,0.711803,0.017589,0.755077,0.753832,0.02636,0,0,0,0,0,0,0,0,0,1,0,0,0,0,0
1739,'2025/06/30 16:28:52:248',77,0.373423,0.000807,-0.078587,-0.086194,-0.104415,0.11307,0.480633,0.427787,0.734874,0.716754,-0.050795,0.745187,0.664931,0.011596,0.719656,0.711803,0.017589,0.755077,0.753832,0.02636,0,0,0,0,0,0,0,0,0,1,0,0,0,0,0
1740,'2025/06/30 16:28:52:252',77,0.373423,0.000807,-0.078587,-0.086194,-0.104415,0.11307,0.480633,0.427787,0.734874,0.716754,-0.050795,0.745187,0.664931,0.011596,0.719656,0.711803,0.017589,0.755077,0.753832,0.02636,0,0,0,0,0,0,0,0,0,1,0,0,0,0,0
1741,'2025/06/30 16:28:52:258',77,0.373423,0.000807,-0.078587,-0.086194,-0.104415,0.11307,0.480633,0.427787,0.734874,0.716754,-0.050795,0.745187,0.664931,0.011596,0.719656,0.711803,0.017589,0.755077,0.753832,0.02636,0,0,0,0,0,0,0,0,0,1,0,0,0,0,0
1742,'2025/06/30 16:28:52:262',77,0.373423,0.000807,-0.078587,-0.086194,-0.104415,0.11307,0.480633,0.427787,0.734874,0.716754,-0.050795,0.745187,0.664931,0.011596,0.719656,0.711803,0.017589,0.755077,0.753832,0.02636,0,0,0,0,0,0,0,0,0,1,0,0,0,0,0
1743,'2025/06/30 16:28:52:267',77,0.373423,0.000807,-0.078587,-0.086194,-0.104415,0.11307,0.480633,0.427787,0.734874,0.716754,-0.050795,0.745187,0.664931,0.011596,0.719656,0.711803,0.017589,0.755077,0.753832,0.02636,0,0,0,0,0,0,0,0,0,1,0,0,0,0,0
1744,'2025/06/30 16:28:52:273',77,0.373423,0.000807,-0.078587,-0.086194,-0.104415,0.11307,0.480633,0.427787,0.734874,0.716754,-0.050795,0.745187,0.664931,0.011596,0.719656,0.711803,0.017589,0.755077,0.753832,0.02636,0,0,0,0,0,0,0,0,0,1,0,0,0,0,0
1745,'2025/06/30 16:28:52:279',77,0.373423,0.000807,-0.078587,-0.086194,-0.104415,0.11307,0.480633,0.427787,0.734874,0.716754,-0.050795,0.745187,0.664931,0.011596,0.719656,0.711803,0.017589,0.755077,0.753832,0.02636,0,0,0,0,0,0,0,0,0,1,0,0,0,0,0
1746,'2025/06/30 16:28:52:283',77,0.373423,0.000807,-0.078587,-0.086194,-0.104415,0.11307,0.480633,0.427787,0.734874,0.716754,-0.050795,0.745187,0.664931,0.011596,0.719656,0.711803,0.017589,0.755077,0.753832,0.02636,0,0,0,0,0,0,0,0,0,1,0,0,0,0,0
1747,'2025/06/30 16:28:52:289',77,0.373423,0.000807,-0.078587,-0.086194,-0.104415,0.11307,0.480633,0.427787,0.734874,0.716754,-0.050795,0.745187,0.664931,0.011596,0.719656,0.711803,0.017589,0.755077,0.753832,0.02636,0,0,0,0,0,0,0,0,0,1,0,0,0,0,0
1748,'2025/06/30 16:28:52:295',77,0.373423,0.000807,-0.078587,-0.086194,-0.104415,0.11307,0.480633,0.427787,0.734874,0.716754,-0.050795,0.745187,0.664931,0.011596,0.719656,0.711803,0.017589,0.755077,0.753832,0.02636,0,0,0,0,0,0,0,0,0,1,0,0,0,0,0
1749,'2025/06/30 16:28:52:302',77,0.373423,0.000807,-0.078587,-0.086194,-0.104415,0.11307,0.480633,0.427787,0.734874,0.716754,-0.050795,0.745187,0.664931,0.011596,0.719656,0.711803,0.017589,0.755077,0.753832,0.02636,0,0,0,0,0,0,0,0,0,1,0,0,0,0,0
1750,'2025/06/30 16:28:52:306',77,0.373423,0.000807,-0.078587,-0.086194,-0.104415,0.11307,0.480633,0.427787,0.734874,0.716754,-0.050795,0.745187,0.664931,0.011596,0.719656,0.711803,0.017589,0.755077,0.753832,0.02636,0,0,0,0,0,0,0,0,0,1,0,0,0,0,0
1751,'2025/06/30 16:28:52:312',77,0.373423,0.000807,-0.078587,-0.086194,-0.104415,0.11307,0.480633,0.427787,0.734874,0.716754,-0.050795,0.745187,0.664931,0.011596,0.719656,0.711803,0.017589,0.755077,0.753832,0.02636,0,0,0,0,0,0,0,0,0,1,0,0,0,0,0
1752,'2025/06/30 16:28:52:317',77,0.373423,0.000807,-0.078587,-0.086194,-0.104415,0.11307,0.480633,0.427787,0.734874,0.716754,-0.050795,0.745187,0.664931,0.011596,0.719656,0.711803,0.017589,0.755077,0.753832,0.02636,0,0,0,0,0,0,0,0,0,1,0,0,0,0,0
1753,'2025/06/30 16:28:52:322',77,0.373423,0.000807,-0.078587,-0.086194,-0.104415,0.11307,0.480633,0.427787,0.734874,0.716754,-0.050795,0.745187,0.664931,0.011596,0.719656,0.711803,0.017589,0.755077,0.753832,0.02636,0,0,0,0,0,0,0,0,0,1,0,0,0,0,0
1754,'2025/06/30 16:28:52:327',77,0.373423,0.000807,-0.078587,-0.086194,-0.104415,0.11307,0.480633,0.427787,0.734874,0.716754,-0.050795,0.745187,0.664931,0.011596,0.719656,0.711803,0.017589,0.755077,0.753832,0.02636,0,0,0,0,0,0,0,0,0,1,0,0,0,0,0
1755,'2025/06/30 16:28:52:333',77,0.373423,0.000807,-0.078587,-0.086194,-0.104415,0.11307,0.480633,0.427787,0.734874,0.716754,-0.050795,0.745187,0.664931,0.011596,0.719656,0.711803,0.017589,0.755077,0.753832,0.02636,0,0,0,0,0,0,0,0,0,1,0,0,0,0,0
1756,'2025/06/30 16:28:52:338',77,0.373423,0.000807,-0.078587,-0.086194,-0.104415,0.11307,0.480633,0.427787,0.734874,0.716754,-0.050795,0.745187,0.664931,0.011596,0.719656,0.711803,0.017589,0.755077,0.753832,0.02636,0,0,0,0,0,0,0,0,0,1,0,0,0,0,0
1757,'2025/06/30 16:28:55:931',78,0.175539,0.000807,-0.078587,-0.086194,-0.104415,0.182582,0.389166,0.454987,0.734874,0.716754,-0.050795,0.745187,0.664931,0.011596,0.719656,0.711803,0.017589,0.755077,0.753832,0.02636,0,0,0,0,0,0,0,0,0,1,0,0,0,0,0
1758,'2025/06/30 16:28:55:936',78,0.175539,0.000807,-0.078587,-0.086194,-0.104415,0.182582,0.389166,0.454987,0.734874,0.716754,-0.050795,0.745187,0.664931,0.011596,0.719656,0.711803,0.017589,0.755077,0.753832,0.02636,0,0,0,0,0,0,0,0,0,1,0,0,0,0,0
1759,'2025/06/30 16:28:55:942',78,0.175539,0.000807,-0.078587,-0.086194,-0.104415,0.182582,0.389166,0.454987,0.734874,0.716754,-0.050795,0.745187,0.664931,0.011596,0.719656,0.711803,0.017589,0.755077,0.753832,0.02636,0,0,0,0,0,0,0,0,0,1,0,0,0,0,0
1760,'2025/06/30 16:28:55:947',78,0.175539,0.000807,-0.078587,-0.086194,-0.104415,0.182582,0.389166,0.454987,0.734874,0.716754,-0.050795,0.745187,0.664931,0.011596,0.719656,0.711803,0.017589,0.755077,0.753832,0.02636,0,0,0,0,0,0,0,0,0,1,0,0,0,0,0
1761,'2025/06/30 16:28:55:951',78,0.175539,0.000807,-0.078587,-0.086194,-0.104415,0.182582,0.389166,0.454987,0.734874,0.716754,-0.050795,0.745187,0.664931,0.011596,0.719656,0.711803,0.017589,0.755077,0.753832,0.02636,0,0,0,0,0,0,0,0,0,1,0,0,0,0,0
1762,'2025/06/30 16:28:55:956',78,0.175539,0.000807,-0.078587,-0.086194,-0.104415,0.182582,0.389166,0.454987,0.734874,0.716754,-0.050795,0.745187,0.664931,0.011596,0.719656,0.711803,0.017589,0.755077,0.753832,0.02636,0,0,0,0,0,0,0,0,0,1,0,0,0,0,0
1763,'2025/06/30 16:28:55:962',78,0.175539,0.000807,-0.078587,-0.086194,-0.104415,0.182582,0.389166,0.454987,0.734874,0.716754,-0.050795,0.745187,0.664931,0.011596,0.719656,0.711803,0.017589,0.755077,0.753832,0.02636,0,0,0,0,0,0,0,0,0,1,0,0,0,0,0
1764,'2025/06/30 16:28:55:967',78,0.175539,0.000807,-0.078587,-0.086194,-0.104415,0.182582,0.389166,0.454987,0.734874,0.716754,-0.050795,0.745187,0.664931,0.011596,0.719656,0.711803,0.017589,0.755077,0.753832,0.02636,0,0,0,0,0,0,0,0,0,1,0,0,0,0,0
1765,'2025/06/30 16:28:55:972',78,0.175539,0.000807,-0.078587,-0.086194,-0.104415,0.182582,0.389166,0.454987,0.734874,0.716754,-0.050795,0.745187,0.664931,0.011596,0.719656,0.711803,0.017589,0.755077,0.753832,0.02636,0,0,0,0,0,0,0,0,0,1,0,0,0,0,0
1766,'2025/06/30 16:28:55:976',78,0.175539,0.000807,-0.078587,-0.086194,-0.104415,0.182582,0.389166,0.454987,0.734874,0.716754,-0.050795,0.745187,0.664931,0.011596,0.719656,0.711803,0.017589,0.755077,0.753832,0.02636,0,0,0,0,0,0,0,0,0,1,0,0,0,0,0
1767,'2025/06/30 16:28:55:982',78,0.175539,0.000807,-0.078587,-0.086194,-0.104415,0.182582,0.389166,0.454987,0.734874,0.716754,-0.050795,0.745187,0.664931,0.011596,0.719656,0.711803,0.017589,0.755077,0.753832,0.02636,0,0,0,0,0,0,0,0,0,1,0,0,0,0,0
1768,'2025/06/30 16:28:55:987',78,0.175539,0.000807,-0.078587,-0.086194,-0.104415,0.182582,0.389166,0.454987,0.734874,0.716754,-0.050795,0.745187,0.664931,0.011596,0.719656,0.711803,0.017589,0.755077,0.753832,0.02636,0,0,0,0,0,0,0,0,0,1,0,0,0,0,0
1769,'2025/06/30 16:28:55:994',78,0.175539,0.000807,-0.078587,-0.086194,-0.104415,0.182582,0.389166,0.454987,0.734874,0.716754,-0.050795,0.745187,0.664931,0.011596,0.719656,0.711803,0.017589,0.755077,0.753832,0.02636,0,0,0,0,0,0,0,0,0,1,0,0,0,0,0
1770,'2025/06/30 16:28:55:999',78,0.175539,0.000807,-0.078587,-0.086194,-0.104415,0.182582,0.389166,0.454987,0.734874,0.716754,-0.050795,0.745187,0.664931,0.011596,0.719656,0.711803,0.017589,0.755077,0.753832,0.02636,0,0,0,0,0,0,0,0,0,1,0,0,0,0,0
1771,'2025/06/30 16:28:56:003',78,0.175539,0.000807,-0.078587,-0.086194,-0.104415,0.182582,0.389166,0.454987,0.734874,0.716754,-0.050795,0.745187,0.664931,0.011596,0.719656,0.711803,0.017589,0.755077,0.753832,0.02636,0,0,0,0,0,0,0,0,0,1,0,0,0,0,0
1772,'2025/06/30 16:28:56:009',78,0.175539,0.000807,-0.078587,-0.086194,-0.104415,0.182582,0.389166,0.454987,0.734874,0.716754,-0.050795,0.745187,0.664931,0.011596,0.719656,0.711803,0.017589,0.755077,0.753832,0.02636,0,0,0,0,0,0,0,0,0,1,0,0,0,0,0
1773,'2025/06/30 16:28:56:013',78,0.175539,0.000807,-0.078587,-0.086194,-0.104415,0.182582,0.389166,0.454987,0.734874,0.716754,-0.050795,0.745187,0.664931,0.011596,0.719656,0.711803,0.017589,0.755077,0.753832,0.02636,0,0,0,0,0,0,0,0,0,1,0,0,0,0,0
1774,'2025/06/30 16:28:56:019',78,0.175539,0.000807,-0.078587,-0.086194,-0.104415,0.182582,0.389166,0.454987,0.734874,0.716754,-0.050795,0.745187,0.664931,0.011596,0.719656,0.711803,0.017589,0.755077,0.753832,0.02636,0,0,0,0,0,0,0,0,0,1,0,0,0,0,0
1775,'2025/06/30 16:28:56:024',78,0.175539,0.000807,-0.078587,-0.086194,-0.104415,0.182582,0.389166,0.454987,0.734874,0.716754,-0.050795,0.745187,0.664931,0.011596,0.719656,0.711803,0.017589,0.755077,0.753832,0.02636,0,0,0,0,0,0,0,0,0,1,0,0,0,0,0
1776,'2025/06/30 16:28:56:031',78,0.175539,0.000807,-0.078587,-0.086194,-0.104415,0.182582,0.389166,0.454987,0.734874,0.716754,-0.050795,0.745187,0.664931,0.011596,0.719656,0.711803,0.017589,0.755077,0.753832,0.02636,0,0,0,0,0,0,0,0,0,1,0,0,0,0,0
1777,'2025/06/30 16:28:56:037',78,0.175539,0.000807,-0.078587,-0.086194,-0.104415,0.182582,0.389166,0.454987,0.734874,0.716754,-0.050795,0.745187,0.664931,0.011596,0.719656,0.711803,0.017589,0.755077,0.753832,0.02636,0,0,0,0,0,0,0,0,0,1,0,0,0,0,0
1778,'2025/06/30 16:28:56:041',78,0.175539,0.000807,-0.078587,-0.086194,-0.104415,0.182582,0.389166,0.454987,0.734874,0.716754,-0.050795,0.745187,0.664931,0.011596,0.719656,0.711803,0.017589,0.755077,0.753832,0.02636,0,0,0,0,0,0,0,0,0,1,0,0,0,0,0
1779,'2025/06/30 16:28:56:046',78,0.175539,0.000807,-0.078587,-0.086194,-0.104415,0.182582,0.389166,0.454987,0.734874,0.716754,-0.050795,0.745187,0.664931,0.011596,0.719656,0.711803,0.017589,0.755077,0.753832,0.02636,0,0,0,0,0,0,0,0,0,1,0,0,0,0,0
1780,'2025/06/30 16:28:58:297',79,0.027893,0.000807,-0.078587,-0.086194,-0.104415,0.246368,0.362181,0.525036,0.734874,0.716754,-0.050795,0.745187,0.664931,0.011596,0.719656,0.711803,0.017589,0.755077,0.753832,0.02636,0,0,0,0,0,0,0,0,0,1,0,0,0,0,0
1781,'2025/06/30 16:28:58:302',79,0.027893,0.000807,-0.078587,-0.086194,-0.104415,0.246368,0.362181,0.525036,0.734874,0.716754,-0.050795,0.745187,0.664931,0.011596,0.719656,0.711803,0.017589,0.755077,0.753832,0.02636,0,0,0,0,0,0,0,0,0,1,0,0,0,0,0
1782,'2025/06/30 16:28:58:309',79,0.027893,0.000807,-0.078587,-0.086194,-0.104415,0.246368,0.362181,0.525036,0.734874,0.716754,-0.050795,0.745187,0.664931,0.011596,0.719656,0.711803,0.017589,0.755077,0.753832,0.02636,0,0,0,0,0,0,0,0,0,1,0,0,0,0,0
1783,'2025/06/30 16:28:58:313',79,0.027893,0.000807,-0.078587,-0.086194,-0.104415,0.246368,0.362181,0.525036,0.734874,0.716754,-0.050795,0.745187,0.664931,0.011596,0.719656,0.711803,0.017589,0.755077,0.753832,0.02636,0,0,0,0,0,0,0,0,0,1,0,0,0,0,0
1784,'2025/06/30 16:28:58:319',79,0.027893,0.000807,-0.078587,-0.086194,-0.104415,0.246368,0.362181,0.525036,0.734874,0.716754,-0.050795,0.745187,0.664931,0.011596,0.719656,0.711803,0.017589,0.755077,0.753832,0.02636,0,0,0,0,0,0,0,0,0,1,0,0,0,0,0
1785,'2025/06/30 16:28:58:323',79,0.027893,0.000807,-0.078587,-0.086194,-0.104415,0.246368,0.362181,0.525036,0.734874,0.716754,-0.050795,0.745187,0.664931,0.011596,0.719656,0.711803,0.017589,0.755077,0.753832,0.02636,0,0,0,0,0,0,0,0,0,1,0,0,0,0,0
1786,'2025/06/30 16:28:58:328',79,0.027893,0.000807,-0.078587,-0.086194,-0.104415,0.246368,0.362181,0.525036,0.734874,0.716754,-0.050795,0.745187,0.664931,0.011596,0.719656,0.711803,0.017589,0.755077,0.753832,0.02636,0,0,0,0,0,0,0,0,0,1,0,0,0,0,0
1787,'2025/06/30 16:28:58:335',79,0.027893,0.000807,-0.078587,-0.086194,-0.104415,0.246368,0.362181,0.525036,0.734874,0.716754,-0.050795,0.745187,0.664931,0.011596,0.719656,0.711803,0.017589,0.755077,0.753832,0.02636,0,0,0,0,0,0,0,0,0,1,0,0,0,0,0
1788,'2025/06/30 16:28:58:340',79,0.027893,0.000807,-0.078587,-0.086194,-0.104415,0.246368,0.362181,0.525036,0.734874,0.716754,-0.050795,0.745187,0.664931,0.011596,0.719656,0.711803,0.017589,0.755077,0.753832,0.02636,0,0,0,0,0,0,0,0,0,1,0,0,0,0,0
1789,'2025/06/30 16:28:58:346',79,0.027893,0.000807,-0.078587,-0.086194,-0.104415,0.246368,0.362181,0.525036,0.734874,0.716754,-0.050795,0.745187,0.664931,0.011596,0.719656,0.711803,0.017589,0.755077,0.753832,0.02636,0,0,0,0,0,0,0,0,0,1,0,0,0,0,0
1790,'2025/06/30 16:28:58:351',79,0.027893,0.000807,-0.078587,-0.086194,-0.104415,0.246368,0.362181,0.525036,0.734874,0.716754,-0.050795,0.745187,0.664931,0.011596,0.719656,0.711803,0.017589,0.755077,0.753832,0.02636,0,0,0,0,0,0,0,0,0,1,0,0,0,0,0
1791,'2025/06/30 16:28:58:356',79,0.027893,0.000807,-0.078587,-0.086194,-0.104415,0.246368,0.362181,0.525036,0.734874,0.716754,-0.050795,0.745187,0.664931,0.011596,0.719656,0.711803,0.017589,0.755077,0.753832,0.02636,0,0,0,0,0,0,0,0,0,1,0,0,0,0,0
1792,'2025/06/30 16:28:58:361',79,0.027893,0.000807,-0.078587,-0.086194,-0.104415,0.246368,0.362181,0.525036,0.734874,0.716754,-0.050795,0.745187,0.664931,0.011596,0.719656,0.711803,0.017589,0.755077,0.753832,0.02636,0,0,0,0,0,0,0,0,0,1,0,0,0,0,0
1793,'2025/06/30 16:28:58:367',79,0.027893,0.000807,-0.078587,-0.086194,-0.104415,0.246368,0.362181,0.525036,0.734874,0.716754,-0.050795,0.745187,0.664931,0.011596,0.719656,0.711803,0.017589,0.755077,0.753832,0.02636,0,0,0,0,0,0,0,0,0,1,0,0,0,0,0
1794,'2025/06/30 16:28:58:372',79,0.027893,0.000807,-0.078587,-0.086194,-0.104415,0.246368,0.362181,0.525036,0.734874,0.716754,-0.050795,0.745187,0.664931,0.011596,0.719656,0.711803,0.017589,0.755077,0.753832,0.02636,0,0,0,0,0,0,0,0,0,1,0,0,0,0,0
1795,'2025/06/30 16:28:58:376',79,0.027893,0.000807,-0.078587,-0.086194,-0.104415,0.246368,0.362181,0.525036,0.734874,0.716754,-0.050795,0.745187,0.664931,0.011596,0.719656,0.711803,0.017589,0.755077,0.753832,0.02636,0,0,0,0,0,0,0,0,0,1,0,0,0,0,0
1796,'2025/06/30 16:28:58:382',79,0.027893,0.000807,-0.078587,-0.086194,-0.104415,0.246368,0.362181,0.525036,0.734874,0.716754,-0.050795,0.745187,0.664931,0.011596,0.719656,0.711803,0.017589,0.755077,0.753832,0.02636,0,0,0,0,0,0,0,0,0,1,0,0,0,0,0
1797,'2025/06/30 16:28:58:387',79,0.027893,0.000807,-0.078587,-0.086194,-0.104415,0.246368,0.362181,0.525036,0.734874,0.716754,-0.050795,0.745187,0.664931,0.011596,0.719656,0.711803,0.017589,0.755077,0.753832,0.02636,0,0,0,0,0,0,0,0,0,1,0,0,0,0,0
1798,'2025/06/30 16:28:58:393',79,0.027893,0.000807,-0.078587,-0.086194,-0.104415,0.246368,0.362181,0.525036,0.734874,0.716754,-0.050795,0.745187,0.664931,0.011596,0.719656,0.711803,0.017589,0.755077,0.753832,0.02636,0,0,0,0,0,0,0,0,0,1,0,0,0,0,0
1799,'2025/06/30 16:28:58:399',79,0.027893,0.000807,-0.078587,-0.086194,-0.104415,0.246368,0.362181,0.525036,0.734874,0.716754,-0.050795,0.745187,0.664931,0.011596,0.719656,0.711803,0.017589,0.755077,0.753832,0.02636,0,0,0,0,0,0,0,0,0,1,0,0,0,0,0
1800,'2025/06/30 16:28:58:403',79,0.027893,0.000807,-0.078587,-0.086194,-0.104415,0.246368,0.362181,0.525036,0.734874,0.716754,-0.050795,0.745187,0.664931,0.011596,0.719656,0.711803,0.017589,0.755077,0.753832,0.02636,0,0,0,0,0,0,0,0,0,1,0,0,0,0,0
1801,'2025/06/30 16:28:58:409',79,0.027893,0.000807,-0.078587,-0.086194,-0.104415,0.246368,0.362181,0.525036,0.734874,0.716754,-0.050795,0.745187,0.664931,0.011596,0.719656,0.711803,0.017589,0.755077,0.753832,0.02636,0,0,0,0,0,0,0,0,0,1,0,0,0,0,0
1802,'2025/06/30 16:28:58:415',79,0.027893,0.000807,-0.078587,-0.086194,-0.104415,0.246368,0.362181,0.525036,0.734874,0.716754,-0.050795,0.745187,0.664931,0.011596,0.719656,0.711803,0.017589,0.755077,0.753832,0.02636,0,0,0,0,0,0,0,0,0,1,0,0,0,0,0
1803,'2025/06/30 16:28:58:422',79,0.027893,0.000807,-0.078587,-0.086194,-0.104415,0.246368,0.362181,0.525036,0.734874,0.716754,-0.050795,0.745187,0.664931,0.011596,0.719656,0.711803,0.017589,0.755077,0.753832,0.02636,0,0,0,0,0,0,0,0,0,1,0,0,0,0,0
1804,'2025/06/30 16:29:00:762',80,0.011825,0.000807,-0.078587,-0.086194,-0.104415,0.29758,0.41193,0.589775,0.734874,0.716754,-0.050795,0.745187,0.664931,0.011596,0.719656,0.711803,0.017589,0.755077,0.753832,0.02636,0,0,0,0,0,0,0,0,0,1,0,0,0,0,0
1805,'2025/06/30 16:29:00:766',80,0.011825,0.000807,-0.078587,-0.086194,-0.104415,0.29758,0.41193,0.589775,0.734874,0.716754,-0.050795,0.745187,0.664931,0.011596,0.719656,0.711803,0.017589,0.755077,0.753832,0.02636,0,0,0,0,0,0,0,0,0,1,0,0,0,0,0
1806,'2025/06/30 16:29:00:772',80,0.011825,0.000807,-0.078587,-0.086194,-0.104415,0.29758,0.41193,0.589775,0.734874,0.716754,-0.050795,0.745187,0.664931,0.011596,0.719656,0.711803,0.017589,0.755077,0.753832,0.02636,0,0,0,0,0,0,0,0,0,1,0,0,0,0,0
1807,'2025/06/30 16:29:00:778',80,0.011825,0.000807,-0.078587,-0.086194,-0.104415,0.29758,0.41193,0.589775,0.734874,0.716754,-0.050795,0.745187,0.664931,0.011596,0.719656,0.711803,0.017589,0.755077,0.753832,0.02636,0,0,0,0,0,0,0,0,0,1,0,0,0,0,0
1808,'2025/06/30 16:29:00:783',80,0.011825,0.000807,-0.078587,-0.086194,-0.104415,0.29758,0.41193,0.589775,0.734874,0.716754,-0.050795,0.745187,0.664931,0.011596,0.719656,0.711803,0.017589,0.755077,0.753832,0.02636,0,0,0,0,0,0,0,0,0,1,0,0,0,0,0
1809,'2025/06/30 16:29:00:788',80,0.011825,0.000807,-0.078587,-0.086194,-0.104415,0.29758,0.41193,0.589775,0.734874,0.716754,-0.050795,0.745187,0.664931,0.011596,0.719656,0.711803,0.017589,0.755077,0.753832,0.02636,0,0,0,0,0,0,0,0,0,1,0,0,0,0,0
1810,'2025/06/30 16:29:00:794',80,0.011825,0.000807,-0.078587,-0.086194,-0.104415,0.29758,0.41193,0.589775,0.734874,0.716754,-0.050795,0.745187,0.664931,0.011596,0.719656,0.711803,0.017589,0.755077,0.753832,0.02636,0,0,0,0,0,0,0,0,0,1,0,0,0,0,0
1811,'2025/06/30 16:29:00:799',80,0.011825,0.000807,-0.078587,-0.086194,-0.104415,0.29758,0.41193,0.589775,0.734874,0.716754,-0.050795,0.745187,0.664931,0.011596,0.719656,0.711803,0.017589,0.755077,0.753832,0.02636,0,0,0,0,0,0,0,0,0,1,0,0,0,0,0
1812,'2025/06/30 16:29:00:803',80,0.011825,0.000807,-0.078587,-0.086194,-0.104415,0.29758,0.41193,0.589775,0.734874,0.716754,-0.050795,0.745187,0.664931,0.011596,0.719656,0.711803,0.017589,0.755077,0.753832,0.02636,0,0,0,0,0,0,0,0,0,1,0,0,0,0,0
1813,'2025/06/30 16:29:00:809',80,0.011825,0.000807,-0.078587,-0.086194,-0.104415,0.29758,0.41193,0.589775,0.734874,0.716754,-0.050795,0.745187,0.664931,0.011596,0.719656,0.711803,0.017589,0.755077,0.753832,0.02636,0,0,0,0,0,0,0,0,0,1,0,0,0,0,0
1814,'2025/06/30 16:29:00:815',80,0.011825,0.000807,-0.078587,-0.086194,-0.104415,0.29758,0.41193,0.589775,0.734874,0.716754,-0.050795,0.745187,0.664931,0.011596,0.719656,0.711803,0.017589,0.755077,0.753832,0.02636,0,0,0,0,0,0,0,0,0,1,0,0,0,0,0
1815,'2025/06/30 16:29:00:822',80,0.011825,0.000807,-0.078587,-0.086194,-0.104415,0.29758,0.41193,0.589775,0.734874,0.716754,-0.050795,0.745187,0.664931,0.011596,0.719656,0.711803,0.017589,0.755077,0.753832,0.02636,0,0,0,0,0,0,0,0,0,1,0,0,0,0,0
1816,'2025/06/30 16:29:00:826',80,0.011825,0.000807,-0.078587,-0.086194,-0.104415,0.29758,0.41193,0.589775,0.734874,0.716754,-0.050795,0.745187,0.664931,0.011596,0.719656,0.711803,0.017589,0.755077,0.753832,0.02636,0,0,0,0,0,0,0,0,0,1,0,0,0,0,0
1817,'2025/06/30 16:29:00:831',80,0.011825,0.000807,-0.078587,-0.086194,-0.104415,0.29758,0.41193,0.589775,0.734874,0.716754,-0.050795,0.745187,0.664931,0.011596,0.719656,0.711803,0.017589,0.755077,0.753832,0.02636,0,0,0,0,0,0,0,0,0,1,0,0,0,0,0
1818,'2025/06/30 16:29:00:838',80,0.011825,0.000807,-0.078587,-0.086194,-0.104415,0.29758,0.41193,0.589775,0.734874,0.716754,-0.050795,0.745187,0.664931,0.011596,0.719656,0.711803,0.017589,0.755077,0.753832,0.02636,0,0,0,0,0,0,0,0,0,1,0,0,0,0,0
1819,'2025/06/30 16:29:00:843',80,0.011825,0.000807,-0.078587,-0.086194,-0.104415,0.29758,0.41193,0.589775,0.734874,0.716754,-0.050795,0.745187,0.664931,0.011596,0.719656,0.711803,0.017589,0.755077,0.753832,0.02636,0,0,0,0,0,0,0,0,0,1,0,0,0,0,0
1820,'2025/06/30 16:29:00:848',80,0.011825,0.000807,-0.078587,-0.086194,-0.104415,0.29758,0.41193,0.589775,0.734874,0.716754,-0.050795,0.745187,0.664931,0.011596,0.719656,0.711803,0.017589,0.755077,0.753832,0.02636,0,0,0,0,0,0,0,0,0,1,0,0,0,0,0
1821,'2025/06/30 16:29:00:852',80,0.011825,0.000807,-0.078587,-0.086194,-0.104415,0.29758,0.41193,0.589775,0.734874,0.716754,-0.050795,0.745187,0.664931,0.011596,0.719656,0.711803,0.017589,0.755077,0.753832,0.02636,0,0,0,0,0,0,0,0,0,1,0,0,0,0,0
1822,'2025/06/30 16:29:00:858',80,0.011825,0.000807,-0.078587,-0.086194,-0.104415,0.29758,0.41193,0.589775,0.734874,0.716754,-0.050795,0.745187,0.664931,0.011596,0.719656,0.711803,0.017589,0.755077,0.753832,0.02636,0,0,0,0,0,0,0,0,0,1,0,0,0,0,0
1823,'2025/06/30 16:29:00:862',80,0.011825,0.000807,-0.078587,-0.086194,-0.104415,0.29758,0.41193,0.589775,0.734874,0.716754,-0.050795,0.745187,0.664931,0.011596,0.719656,0.711803,0.017589,0.755077,0.753832,0.02636,0,0,0,0,0,0,0,0,0,1,0,0,0,0,0
1824,'2025/06/30 16:29:00:868',80,0.011825,0.000807,-0.078587,-0.086194,-0.104415,0.29758,0.41193,0.589775,0.734874,0.716754,-0.050795,0.745187,0.664931,0.011596,0.719656,0.711803,0.017589,0.755077,0.753832,0.02636,0,0,0,0,0,0,0,0,0,1,0,0,0,0,0
1825,'2025/06/30 16:29:00:873',80,0.011825,0.000807,-0.078587,-0.086194,-0.104415,0.29758,0.41193,0.589775,0.734874,0.716754,-0.050795,0.745187,0.664931,0.011596,0.719656,0.711803,0.017589,0.755077,0.753832,0.02636,0,0,0,0,0,0,0,0,0,1,0,0,0,0,0
1826,'2025/06/30 16:29:00:878',80,0.011825,0.000807,-0.078587,-0.086194,-0.104415,0.29758,0.41193,0.589775,0.734874,0.716754,-0.050795,0.745187,0.664931,0.011596,0.719656,0.711803,0.017589,0.755077,0.753832,0.02636,0,0,0,0,0,0,0,0,0,1,0,0,0,0,0
1827,'2025/06/30 16:29:00:884',80,0.011825,0.000807,-0.078587,-0.086194,-0.104415,0.29758,0.41193,0.589775,0.734874,0.716754,-0.050795,0.745187,0.664931,0.011596,0.719656,0.711803,0.017589,0.755077,0.753832,0.02636,0,0,0,0,0,0,0,0,0,1,0,0,0,0,0
1828,'2025/06/30 16:29:00:889',80,0.011825,0.000807,-0.078587,-0.086194,-0.104415,0.29758,0.41193,0.589775,0.734874,0.716754,-0.050795,0.745187,0.664931,0.011596,0.719656,0.711803,0.017589,0.755077,0.753832,0.02636,0,0,0,0,0,0,0,0,0,1,0,0,0,0,0
1829,'2025/06/30 16:29:00:895',80,0.011825,0.000807,-0.078587,-0.086194,-0.104415,0.29758,0.41193,0.589775,0.734874,0.716754,-0.050795,0.745187,0.664931,0.011596,0.719656,0.711803,0.017589,0.755077,0.753832,0.02636,0,0,0,0,0,0,0,0,0,1,0,0,0,0,0
1830,'2025/06/30 16:29:00:901',80,0.011825,0.000807,-0.078587,-0.086194,-0.104415,0.29758,0.41193,0.589775,0.734874,0.716754,-0.050795,0.745187,0.664931,0.011596,0.719656,0.711803,0.017589,0.755077,0.753832,0.02636,0,0,0,0,0,0,0,0,0,1,0,0,0,0,0
1831,'2025/06/30 16:29:00:906',80,0.011825,0.000807,-0.078587,-0.086194,-0.104415,0.29758,0.41193,0.589775,0.734874,0.716754,-0.050795,0.745187,0.664931,0.011596,0.719656,0.711803,0.017589,0.755077,0.753832,0.02636,0,0,0,0,0,0,0,0,0,1,0,0,0,0,0
1832,'2025/06/30 16:29:00:912',80,0.011825,0.000807,-0.078587,-0.086194,-0.104415,0.29758,0.41193,0.589775,0.734874,0.716754,-0.050795,0.745187,0.664931,0.011596,0.719656,0.711803,0.017589,0.755077,0.753832,0.02636,0,0,0,0,0,0,0,0,0,1,0,0,0,0,0
1833,'2025/06/30 16:29:14:539',81,0.011825,0.010696,-0.050014,-0.049381,-0.04586,0.29758,0.41193,0.589775,0.615864,0.835394,-0.05606,0.529511,0.848019,-0.007874,0.491102,0.875405,-0.010899,0.518401,0.895561,-0.024276,0,0,0,0,0,0,0,0,0,1,0,0,0,0,0
1834,'2025/06/30 16:29:14:544',81,0.011825,0.010696,-0.050014,-0.049381,-0.04586,0.29758,0.41193,0.589775,0.615864,0.835394,-0.05606,0.529511,0.848019,-0.007874,0.491102,0.875405,-0.010899,0.518401,0.895561,-0.024276,0,0,0,0,0,0,0,0,0,1,0,0,0,0,0
1835,'2025/06/30 16:29:14:549',81,0.011825,0.010696,-0.050014,-0.049381,-0.04586,0.29758,0.41193,0.589775,0.615864,0.835394,-0.05606,0.529511,0.848019,-0.007874,0.491102,0.875405,-0.010899,0.518401,0.895561,-0.024276,0,0,0,0,0,0,0,0,0,1,0,0,0,0,0
1836,'2025/06/30 16:29:14:553',81,0.011825,0.010696,-0.050014,-0.049381,-0.04586,0.29758,0.41193,0.589775,0.615864,0.835394,-0.05606,0.529511,0.848019,-0.007874,0.491102,0.875405,-0.010899,0.518401,0.895561,-0.024276,0,0,0,0,0,0,0,0,0,1,0,0,0,0,0
1837,'2025/06/30 16:29:14:559',81,0.011825,0.010696,-0.050014,-0.049381,-0.04586,0.29758,0.41193,0.589775,0.615864,0.835394,-0.05606,0.529511,0.848019,-0.007874,0.491102,0.875405,-0.010899,0.518401,0.895561,-0.024276,0,0,0,0,0,0,0,0,0,1,0,0,0,0,0
1838,'2025/06/30 16:29:14:564',81,0.011825,0.010696,-0.050014,-0.049381,-0.04586,0.29758,0.41193,0.589775,0.615864,0.835394,-0.05606,0.529511,0.848019,-0.007874,0.491102,0.875405,-0.010899,0.518401,0.895561,-0.024276,0,0,0,0,0,0,0,0,0,1,0,0,0,0,0
1839,'2025/06/30 16:29:14:568',81,0.011825,0.010696,-0.050014,-0.049381,-0.04586,0.29758,0.41193,0.589775,0.615864,0.835394,-0.05606,0.529511,0.848019,-0.007874,0.491102,0.875405,-0.010899,0.518401,0.895561,-0.024276,0,0,0,0,0,0,0,0,0,1,0,0,0,0,0
1840,'2025/06/30 16:29:14:573',81,0.011825,0.010696,-0.050014,-0.049381,-0.04586,0.29758,0.41193,0.589775,0.615864,0.835394,-0.05606,0.529511,0.848019,-0.007874,0.491102,0.875405,-0.010899,0.518401,0.895561,-0.024276,0,0,0,0,0,0,0,0,0,1,0,0,0,0,0
1841,'2025/06/30 16:29:14:578',81,0.011825,0.010696,-0.050014,-0.049381,-0.04586,0.29758,0.41193,0.589775,0.615864,0.835394,-0.05606,0.529511,0.848019,-0.007874,0.491102,0.875405,-0.010899,0.518401,0.895561,-0.024276,0,0,0,0,0,0,0,0,0,1,0,0,0,0,0
1842,'2025/06/30 16:29:14:584',81,0.011825,0.010696,-0.050014,-0.049381,-0.04586,0.29758,0.41193,0.589775,0.615864,0.835394,-0.05606,0.529511,0.848019,-0.007874,0.491102,0.875405,-0.010899,0.518401,0.895561,-0.024276,0,0,0,0,0,0,0,0,0,1,0,0,0,0,0
1843,'2025/06/30 16:29:14:590',81,0.011825,0.010696,-0.050014,-0.049381,-0.04586,0.29758,0.41193,0.589775,0.615864,0.835394,-0.05606,0.529511,0.848019,-0.007874,0.491102,0.875405,-0.010899,0.518401,0.895561,-0.024276,0,0,0,0,0,0,0,0,0,1,0,0,0,0,0
1844,'2025/06/30 16:29:14:596',81,0.011825,0.010696,-0.050014,-0.049381,-0.04586,0.29758,0.41193,0.589775,0.615864,0.835394,-0.05606,0.529511,0.848019,-0.007874,0.491102,0.875405,-0.010899,0.518401,0.895561,-0.024276,0,0,0,0,0,0,0,0,0,1,0,0,0,0,0
1845,'2025/06/30 16:29:14:602',81,0.011825,0.010696,-0.050014,-0.049381,-0.04586,0.29758,0.41193,0.589775,0.615864,0.835394,-0.05606,0.529511,0.848019,-0.007874,0.491102,0.875405,-0.010899,0.518401,0.895561,-0.024276,0,0,0,0,0,0,0,0,0,1,0,0,0,0,0
1846,'2025/06/30 16:29:14:608',81,0.011825,0.010696,-0.050014,-0.049381,-0.04586,0.29758,0.41193,0.589775,0.615864,0.835394,-0.05606,0.529511,0.848019,-0.007874,0.491102,0.875405,-0.010899,0.518401,0.895561,-0.024276,0,0,0,0,0,0,0,0,0,1,0,0,0,0,0
1847,'2025/06/30 16:29:14:613',81,0.011825,0.010696,-0.050014,-0.049381,-0.04586,0.29758,0.41193,0.589775,0.615864,0.835394,-0.05606,0.529511,0.848019,-0.007874,0.491102,0.875405,-0.010899,0.518401,0.895561,-0.024276,0,0,0,0,0,0,0,0,0,1,0,0,0,0,0
1848,'2025/06/30 16:29:14:618',81,0.011825,0.010696,-0.050014,-0.049381,-0.04586,0.29758,0.41193,0.589775,0.615864,0.835394,-0.05606,0.529511,0.848019,-0.007874,0.491102,0.875405,-0.010899,0.518401,0.895561,-0.024276,0,0,0,0,0,0,0,0,0,1,0,0,0,0,0
1849,'2025/06/30 16:29:14:625',81,0.011825,0.010696,-0.050014,-0.049381,-0.04586,0.29758,0.41193,0.589775,0.615864,0.835394,-0.05606,0.529511,0.848019,-0.007874,0.491102,0.875405,-0.010899,0.518401,0.895561,-0.024276,0,0,0,0,0,0,0,0,0,1,0,0,0,0,0
1850,'2025/06/30 16:29:14:630',81,0.011825,0.010696,-0.050014,-0.049381,-0.04586,0.29758,0.41193,0.589775,0.615864,0.835394,-0.05606,0.529511,0.848019,-0.007874,0.491102,0.875405,-0.010899,0.518401,0.895561,-0.024276,0,0,0,0,0,0,0,0,0,1,0,0,0,0,0
1851,'2025/06/30 16:29:14:635',81,0.011825,0.010696,-0.050014,-0.049381,-0.04586,0.29758,0.41193,0.589775,0.615864,0.835394,-0.05606,0.529511,0.848019,-0.007874,0.491102,0.875405,-0.010899,0.518401,0.895561,-0.024276,0,0,0,0,0,0,0,0,0,1,0,0,0,0,0
1852,'2025/06/30 16:29:14:641',81,0.011825,0.010696,-0.050014,-0.049381,-0.04586,0.29758,0.41193,0.589775,0.615864,0.835394,-0.05606,0.529511,0.848019,-0.007874,0.491102,0.875405,-0.010899,0.518401,0.895561,-0.024276,0,0,0,0,0,0,0,0,0,1,0,0,0,0,0
1853,'2025/06/30 16:29:14:645',81,0.011825,0.010696,-0.050014,-0.049381,-0.04586,0.29758,0.41193,0.589775,0.615864,0.835394,-0.05606,0.529511,0.848019,-0.007874,0.491102,0.875405,-0.010899,0.518401,0.895561,-0.024276,0,0,0,0,0,0,0,0,0,1,0,0,0,0,0
1854,'2025/06/30 16:29:14:652',81,0.011825,0.010696,-0.050014,-0.049381,-0.04586,0.29758,0.41193,0.589775,0.615864,0.835394,-0.05606,0.529511,0.848019,-0.007874,0.491102,0.875405,-0.010899,0.518401,0.895561,-0.024276,0,0,0,0,0,0,0,0,0,1,0,0,0,0,0
1855,'2025/06/30 16:29:14:657',81,0.011825,0.010696,-0.050014,-0.049381,-0.04586,0.29758,0.41193,0.589775,0.615864,0.835394,-0.05606,0.529511,0.848019,-0.007874,0.491102,0.875405,-0.010899,0.518401,0.895561,-0.024276,0,0,0,0,0,0,0,0,0,1,0,0,0,0,0
1856,'2025/06/30 16:29:14:663',81,0.011825,0.010696,-0.050014,-0.049381,-0.04586,0.29758,0.41193,0.589775,0.615864,0.835394,-0.05606,0.529511,0.848019,-0.007874,0.491102,0.875405,-0.010899,0.518401,0.895561,-0.024276,0,0,0,0,0,0,0,0,0,1,0,0,0,0,0
1857,'2025/06/30 16:29:14:668',81,0.011825,0.010696,-0.050014,-0.049381,-0.04586,0.29758,0.41193,0.589775,0.615864,0.835394,-0.05606,0.529511,0.848019,-0.007874,0.491102,0.875405,-0.010899,0.518401,0.895561,-0.024276,0,0,0,0,0,0,0,0,0,1,0,0,0,0,0
1858,'2025/06/30 16:29:18:047',82,0.054607,0.010696,-0.050014,-0.049381,-0.04586,0.234956,0.368311,0.514852,0.615864,0.835394,-0.05606,0.529511,0.848019,-0.007874,0.491102,0.875405,-0.010899,0.518401,0.895561,-0.024276,0,0,0,0,0,0,0,0,0,1,0,0,0,0,0
1859,'2025/06/30 16:29:18:053',82,0.054607,0.010696,-0.050014,-0.049381,-0.04586,0.234956,0.368311,0.514852,0.615864,0.835394,-0.05606,0.529511,0.848019,-0.007874,0.491102,0.875405,-0.010899,0.518401,0.895561,-0.024276,0,0,0,0,0,0,0,0,0,1,0,0,0,0,0
1860,'2025/06/30 16:29:18:058',82,0.054607,0.010696,-0.050014,-0.049381,-0.04586,0.234956,0.368311,0.514852,0.615864,0.835394,-0.05606,0.529511,0.848019,-0.007874,0.491102,0.875405,-0.010899,0.518401,0.895561,-0.024276,0,0,0,0,0,0,0,0,0,1,0,0,0,0,0
1861,'2025/06/30 16:29:18:064',82,0.054607,0.010696,-0.050014,-0.049381,-0.04586,0.234956,0.368311,0.514852,0.615864,0.835394,-0.05606,0.529511,0.848019,-0.007874,0.491102,0.875405,-0.010899,0.518401,0.895561,-0.024276,0,0,0,0,0,0,0,0,0,1,0,0,0,0,0
1862,'2025/06/30 16:29:18:071',82,0.054607,0.010696,-0.050014,-0.049381,-0.04586,0.234956,0.368311,0.514852,0.615864,0.835394,-0.05606,0.529511,0.848019,-0.007874,0.491102,0.875405,-0.010899,0.518401,0.895561,-0.024276,0,0,0,0,0,0,0,0,0,1,0,0,0,0,0
1863,'2025/06/30 16:29:18:076',82,0.054607,0.010696,-0.050014,-0.049381,-0.04586,0.234956,0.368311,0.514852,0.615864,0.835394,-0.05606,0.529511,0.848019,-0.007874,0.491102,0.875405,-0.010899,0.518401,0.895561,-0.024276,0,0,0,0,0,0,0,0,0,1,0,0,0,0,0
1864,'2025/06/30 16:29:18:082',82,0.054607,0.010696,-0.050014,-0.049381,-0.04586,0.234956,0.368311,0.514852,0.615864,0.835394,-0.05606,0.529511,0.848019,-0.007874,0.491102,0.875405,-0.010899,0.518401,0.895561,-0.024276,0,0,0,0,0,0,0,0,0,1,0,0,0,0,0
1865,'2025/06/30 16:29:18:088',82,0.054607,0.010696,-0.050014,-0.049381,-0.04586,0.234956,0.368311,0.514852,0.615864,0.835394,-0.05606,0.529511,0.848019,-0.007874,0.491102,0.875405,-0.010899,0.518401,0.895561,-0.024276,0,0,0,0,0,0,0,0,0,1,0,0,0,0,0
1866,'2025/06/30 16:29:18:093',82,0.054607,0.010696,-0.050014,-0.049381,-0.04586,0.234956,0.368311,0.514852,0.615864,0.835394,-0.05606,0.529511,0.848019,-0.007874,0.491102,0.875405,-0.010899,0.518401,0.895561,-0.024276,0,0,0,0,0,0,0,0,0,1,0,0,0,0,0
1867,'2025/06/30 16:29:18:100',82,0.054607,0.010696,-0.050014,-0.049381,-0.04586,0.234956,0.368311,0.514852,0.615864,0.835394,-0.05606,0.529511,0.848019,-0.007874,0.491102,0.875405,-0.010899,0.518401,0.895561,-0.024276,0,0,0,0,0,0,0,0,0,1,0,0,0,0,0
1868,'2025/06/30 16:29:18:106',82,0.054607,0.010696,-0.050014,-0.049381,-0.04586,0.234956,0.368311,0.514852,0.615864,0.835394,-0.05606,0.529511,0.848019,-0.007874,0.491102,0.875405,-0.010899,0.518401,0.895561,-0.024276,0,0,0,0,0,0,0,0,0,1,0,0,0,0,0
1869,'2025/06/30 16:29:18:110',82,0.054607,0.010696,-0.050014,-0.049381,-0.04586,0.234956,0.368311,0.514852,0.615864,0.835394,-0.05606,0.529511,0.848019,-0.007874,0.491102,0.875405,-0.010899,0.518401,0.895561,-0.024276,0,0,0,0,0,0,0,0,0,1,0,0,0,0,0
1870,'2025/06/30 16:29:18:115',82,0.054607,0.010696,-0.050014,-0.049381,-0.04586,0.234956,0.368311,0.514852,0.615864,0.835394,-0.05606,0.529511,0.848019,-0.007874,0.491102,0.875405,-0.010899,0.518401,0.895561,-0.024276,0,0,0,0,0,0,0,0,0,1,0,0,0,0,0
1871,'2025/06/30 16:29:18:119',82,0.054607,0.010696,-0.050014,-0.049381,-0.04586,0.234956,0.368311,0.514852,0.615864,0.835394,-0.05606,0.529511,0.848019,-0.007874,0.491102,0.875405,-0.010899,0.518401,0.895561,-0.024276,0,0,0,0,0,0,0,0,0,1,0,0,0,0,0
1872,'2025/06/30 16:29:18:124',82,0.054607,0.010696,-0.050014,-0.049381,-0.04586,0.234956,0.368311,0.514852,0.615864,0.835394,-0.05606,0.529511,0.848019,-0.007874,0.491102,0.875405,-0.010899,0.518401,0.895561,-0.024276,0,0,0,0,0,0,0,0,0,1,0,0,0,0,0
1873,'2025/06/30 16:29:18:129',82,0.054607,0.010696,-0.050014,-0.049381,-0.04586,0.234956,0.368311,0.514852,0.615864,0.835394,-0.05606,0.529511,0.848019,-0.007874,0.491102,0.875405,-0.010899,0.518401,0.895561,-0.024276,0,0,0,0,0,0,0,0,0,1,0,0,0,0,0
1874,'2025/06/30 16:29:18:134',82,0.054607,0.010696,-0.050014,-0.049381,-0.04586,0.234956,0.368311,0.514852,0.615864,0.835394,-0.05606,0.529511,0.848019,-0.007874,0.491102,0.875405,-0.010899,0.518401,0.895561,-0.024276,0,0,0,0,0,0,0,0,0,1,0,0,0,0,0
1875,'2025/06/30 16:29:18:140',82,0.054607,0.010696,-0.050014,-0.049381,-0.04586,0.234956,0.368311,0.514852,0.615864,0.835394,-0.05606,0.529511,0.848019,-0.007874,0.491102,0.875405,-0.010899,0.518401,0.895561,-0.024276,0,0,0,0,0,0,0,0,0,1,0,0,0,0,0
1876,'2025/06/30 16:29:18:145',82,0.054607,0.010696,-0.050014,-0.049381,-0.04586,0.234956,0.368311,0.514852,0.615864,0.835394,-0.05606,0.529511,0.848019,-0.007874,0.491102,0.875405,-0.010899,0.518401,0.895561,-0.024276,0,0,0,0,0,0,0,0,0,1,0,0,0,0,0
1877,'2025/06/30 16:29:18:150',82,0.054607,0.010696,-0.050014,-0.049381,-0.04586,0.234956,0.368311,0.514852,0.615864,0.835394,-0.05606,0.529511,0.848019,-0.007874,0.491102,0.875405,-0.010899,0.518401,0.895561,-0.024276,0,0,0,0,0,0,0,0,0,1,0,0,0,0,0
1878,'2025/06/30 16:29:18:156',82,0.054607,0.010696,-0.050014,-0.049381,-0.04586,0.234956,0.368311,0.514852,0.615864,0.835394,-0.05606,0.529511,0.848019,-0.007874,0.491102,0.875405,-0.010899,0.518401,0.895561,-0.024276,0,0,0,0,0,0,0,0,0,1,0,0,0,0,0
1879,'2025/06/30 16:29:18:162',82,0.054607,0.010696,-0.050014,-0.049381,-0.04586,0.234956,0.368311,0.514852,0.615864,0.835394,-0.05606,0.529511,0.848019,-0.007874,0.491102,0.875405,-0.010899,0.518401,0.895561,-0.024276,0,0,0,0,0,0,0,0,0,1,0,0,0,0,0
1880,'2025/06/30 16:29:18:166',82,0.054607,0.010696,-0.050014,-0.049381,-0.04586,0.234956,0.368311,0.514852,0.615864,0.835394,-0.05606,0.529511,0.848019,-0.007874,0.491102,0.875405,-0.010899,0.518401,0.895561,-0.024276,0,0,0,0,0,0,0,0,0,1,0,0,0,0,0
1881,'2025/06/30 16:29:20:703',83,0.173106,0.010696,-0.050014,-0.049381,-0.04586,0.175101,0.365606,0.419503,0.615864,0.835394,-0.05606,0.529511,0.848019,-0.007874,0.491102,0.875405,-0.010899,0.518401,0.895561,-0.024276,0,0,0,0,0,0,0,0,0,1,0,0,0,0,0
1882,'2025/06/30 16:29:20:708',83,0.173106,0.010696,-0.050014,-0.049381,-0.04586,0.175101,0.365606,0.419503,0.615864,0.835394,-0.05606,0.529511,0.848019,-0.007874,0.491102,0.875405,-0.010899,0.518401,0.895561,-0.024276,0,0,0,0,0,0,0,0,0,1,0,0,0,0,0
1883,'2025/06/30 16:29:20:713',83,0.173106,0.010696,-0.050014,-0.049381,-0.04586,0.175101,0.365606,0.419503,0.615864,0.835394,-0.05606,0.529511,0.848019,-0.007874,0.491102,0.875405,-0.010899,0.518401,0.895561,-0.024276,0,0,0,0,0,0,0,0,0,1,0,0,0,0,0
1884,'2025/06/30 16:29:20:719',83,0.173106,0.010696,-0.050014,-0.049381,-0.04586,0.175101,0.365606,0.419503,0.615864,0.835394,-0.05606,0.529511,0.848019,-0.007874,0.491102,0.875405,-0.010899,0.518401,0.895561,-0.024276,0,0,0,0,0,0,0,0,0,1,0,0,0,0,0
1885,'2025/06/30 16:29:20:723',83,0.173106,0.010696,-0.050014,-0.049381,-0.04586,0.175101,0.365606,0.419503,0.615864,0.835394,-0.05606,0.529511,0.848019,-0.007874,0.491102,0.875405,-0.010899,0.518401,0.895561,-0.024276,0,0,0,0,0,0,0,0,0,1,0,0,0,0,0
1886,'2025/06/30 16:29:20:728',83,0.173106,0.010696,-0.050014,-0.049381,-0.04586,0.175101,0.365606,0.419503,0.615864,0.835394,-0.05606,0.529511,0.848019,-0.007874,0.491102,0.875405,-0.010899,0.518401,0.895561,-0.024276,0,0,0,0,0,0,0,0,0,1,0,0,0,0,0
1887,'2025/06/30 16:29:20:734',83,0.173106,0.010696,-0.050014,-0.049381,-0.04586,0.175101,0.365606,0.419503,0.615864,0.835394,-0.05606,0.529511,0.848019,-0.007874,0.491102,0.875405,-0.010899,0.518401,0.895561,-0.024276,0,0,0,0,0,0,0,0,0,1,0,0,0,0,0
1888,'2025/06/30 16:29:20:738',83,0.173106,0.010696,-0.050014,-0.049381,-0.04586,0.175101,0.365606,0.419503,0.615864,0.835394,-0.05606,0.529511,0.848019,-0.007874,0.491102,0.875405,-0.010899,0.518401,0.895561,-0.024276,0,0,0,0,0,0,0,0,0,1,0,0,0,0,0
1889,'2025/06/30 16:29:20:745',83,0.173106,0.010696,-0.050014,-0.049381,-0.04586,0.175101,0.365606,0.419503,0.615864,0.835394,-0.05606,0.529511,0.848019,-0.007874,0.491102,0.875405,-0.010899,0.518401,0.895561,-0.024276,0,0,0,0,0,0,0,0,0,1,0,0,0,0,0
1890,'2025/06/30 16:29:20:750',83,0.173106,0.010696,-0.050014,-0.049381,-0.04586,0.175101,0.365606,0.419503,0.615864,0.835394,-0.05606,0.529511,0.848019,-0.007874,0.491102,0.875405,-0.010899,0.518401,0.895561,-0.024276,0,0,0,0,0,0,0,0,0,1,0,0,0,0,0
1891,'2025/06/30 16:29:20:755',83,0.173106,0.010696,-0.050014,-0.049381,-0.04586,0.175101,0.365606,0.419503,0.615864,0.835394,-0.05606,0.529511,0.848019,-0.007874,0.491102,0.875405,-0.010899,0.518401,0.895561,-0.024276,0,0,0,0,0,0,0,0,0,1,0,0,0,0,0
1892,'2025/06/30 16:29:20:761',83,0.173106,0.010696,-0.050014,-0.049381,-0.04586,0.175101,0.365606,0.419503,0.615864,0.835394,-0.05606,0.529511,0.848019,-0.007874,0.491102,0.875405,-0.010899,0.518401,0.895561,-0.024276,0,0,0,0,0,0,0,0,0,1,0,0,0,0,0
1893,'2025/06/30 16:29:20:765',83,0.173106,0.010696,-0.050014,-0.049381,-0.04586,0.175101,0.365606,0.419503,0.615864,0.835394,-0.05606,0.529511,0.848019,-0.007874,0.491102,0.875405,-0.010899,0.518401,0.895561,-0.024276,0,0,0,0,0,0,0,0,0,1,0,0,0,0,0
1894,'2025/06/30 16:29:20:769',83,0.173106,0.010696,-0.050014,-0.049381,-0.04586,0.175101,0.365606,0.419503,0.615864,0.835394,-0.05606,0.529511,0.848019,-0.007874,0.491102,0.875405,-0.010899,0.518401,0.895561,-0.024276,0,0,0,0,0,0,0,0,0,1,0,0,0,0,0
1895,'2025/06/30 16:29:20:775',83,0.173106,0.010696,-0.050014,-0.049381,-0.04586,0.175101,0.365606,0.419503,0.615864,0.835394,-0.05606,0.529511,0.848019,-0.007874,0.491102,0.875405,-0.010899,0.518401,0.895561,-0.024276,0,0,0,0,0,0,0,0,0,1,0,0,0,0,0
1896,'2025/06/30 16:29:20:781',83,0.173106,0.010696,-0.050014,-0.049381,-0.04586,0.175101,0.365606,0.419503,0.615864,0.835394,-0.05606,0.529511,0.848019,-0.007874,0.491102,0.875405,-0.010899,0.518401,0.895561,-0.024276,0,0,0,0,0,0,0,0,0,1,0,0,0,0,0
1897,'2025/06/30 16:29:20:786',83,0.173106,0.010696,-0.050014,-0.049381,-0.04586,0.175101,0.365606,0.419503,0.615864,0.835394,-0.05606,0.529511,0.848019,-0.007874,0.491102,0.875405,-0.010899,0.518401,0.895561,-0.024276,0,0,0,0,0,0,0,0,0,1,0,0,0,0,0
1898,'2025/06/30 16:29:20:792',83,0.173106,0.010696,-0.050014,-0.049381,-0.04586,0.175101,0.365606,0.419503,0.615864,0.835394,-0.05606,0.529511,0.848019,-0.007874,0.491102,0.875405,-0.010899,0.518401,0.895561,-0.024276,0,0,0,0,0,0,0,0,0,1,0,0,0,0,0
1899,'2025/06/30 16:29:20:798',83,0.173106,0.010696,-0.050014,-0.049381,-0.04586,0.175101,0.365606,0.419503,0.615864,0.835394,-0.05606,0.529511,0.848019,-0.007874,0.491102,0.875405,-0.010899,0.518401,0.895561,-0.024276,0,0,0,0,0,0,0,0,0,1,0,0,0,0,0
1900,'2025/06/30 16:29:20:803',83,0.173106,0.010696,-0.050014,-0.049381,-0.04586,0.175101,0.365606,0.419503,0.615864,0.835394,-0.05606,0.529511,0.848019,-0.007874,0.491102,0.875405,-0.010899,0.518401,0.895561,-0.024276,0,0,0,0,0,0,0,0,0,1,0,0,0,0,0
1901,'2025/06/30 16:29:20:810',83,0.173106,0.010696,-0.050014,-0.049381,-0.04586,0.175101,0.365606,0.419503,0.615864,0.835394,-0.05606,0.529511,0.848019,-0.007874,0.491102,0.875405,-0.010899,0.518401,0.895561,-0.024276,0,0,0,0,0,0,0,0,0,1,0,0,0,0,0
1902,'2025/06/30 16:29:20:814',83,0.173106,0.010696,-0.050014,-0.049381,-0.04586,0.175101,0.365606,0.419503,0.615864,0.835394,-0.05606,0.529511,0.848019,-0.007874,0.491102,0.875405,-0.010899,0.518401,0.895561,-0.024276,0,0,0,0,0,0,0,0,0,1,0,0,0,0,0
1903,'2025/06/30 16:29:20:820',83,0.173106,0.010696,-0.050014,-0.049381,-0.04586,0.175101,0.365606,0.419503,0.615864,0.835394,-0.05606,0.529511,0.848019,-0.007874,0.491102,0.875405,-0.010899,0.518401,0.895561,-0.024276,0,0,0,0,0,0,0,0,0,1,0,0,0,0,0
1904,'2025/06/30 16:29:20:824',83,0.173106,0.010696,-0.050014,-0.049381,-0.04586,0.175101,0.365606,0.419503,0.615864,0.835394,-0.05606,0.529511,0.848019,-0.007874,0.491102,0.875405,-0.010899,0.518401,0.895561,-0.024276,0,0,0,0,0,0,0,0,0,1,0,0,0,0,0
1905,'2025/06/30 16:29:23:149',84,0.365113,0.010696,-0.050014,-0.049381,-0.04586,0.099252,0.405139,0.309057,0.615864,0.835394,-0.05606,0.529511,0.848019,-0.007874,0.491102,0.875405,-0.010899,0.518401,0.895561,-0.024276,0,0,0,0,0,0,0,0,0,1,0,0,0,0,0
1906,'2025/06/30 16:29:23:155',84,0.365113,0.010696,-0.050014,-0.049381,-0.04586,0.099252,0.405139,0.309057,0.615864,0.835394,-0.05606,0.529511,0.848019,-0.007874,0.491102,0.875405,-0.010899,0.518401,0.895561,-0.024276,0,0,0,0,0,0,0,0,0,1,0,0,0,0,0
1907,'2025/06/30 16:29:23:159',84,0.365113,0.010696,-0.050014,-0.049381,-0.04586,0.099252,0.405139,0.309057,0.615864,0.835394,-0.05606,0.529511,0.848019,-0.007874,0.491102,0.875405,-0.010899,0.518401,0.895561,-0.024276,0,0,0,0,0,0,0,0,0,1,0,0,0,0,0
1908,'2025/06/30 16:29:23:165',84,0.365113,0.010696,-0.050014,-0.049381,-0.04586,0.099252,0.405139,0.309057,0.615864,0.835394,-0.05606,0.529511,0.848019,-0.007874,0.491102,0.875405,-0.010899,0.518401,0.895561,-0.024276,0,0,0,0,0,0,0,0,0,1,0,0,0,0,0
1909,'2025/06/30 16:29:23:170',84,0.365113,0.010696,-0.050014,-0.049381,-0.04586,0.099252,0.405139,0.309057,0.615864,0.835394,-0.05606,0.529511,0.848019,-0.007874,0.491102,0.875405,-0.010899,0.518401,0.895561,-0.024276,0,0,0,0,0,0,0,0,0,1,0,0,0,0,0
1910,'2025/06/30 16:29:23:176',84,0.365113,0.010696,-0.050014,-0.049381,-0.04586,0.099252,0.405139,0.309057,0.615864,0.835394,-0.05606,0.529511,0.848019,-0.007874,0.491102,0.875405,-0.010899,0.518401,0.895561,-0.024276,0,0,0,0,0,0,0,0,0,1,0,0,0,0,0
1911,'2025/06/30 16:29:23:181',84,0.365113,0.010696,-0.050014,-0.049381,-0.04586,0.099252,0.405139,0.309057,0.615864,0.835394,-0.05606,0.529511,0.848019,-0.007874,0.491102,0.875405,-0.010899,0.518401,0.895561,-0.024276,0,0,0,0,0,0,0,0,0,1,0,0,0,0,0
1912,'2025/06/30 16:29:23:186',84,0.365113,0.010696,-0.050014,-0.049381,-0.04586,0.099252,0.405139,0.309057,0.615864,0.835394,-0.05606,0.529511,0.848019,-0.007874,0.491102,0.875405,-0.010899,0.518401,0.895561,-0.024276,0,0,0,0,0,0,0,0,0,1,0,0,0,0,0
1913,'2025/06/30 16:29:23:191',84,0.365113,0.010696,-0.050014,-0.049381,-0.04586,0.099252,0.405139,0.309057,0.615864,0.835394,-0.05606,0.529511,0.848019,-0.007874,0.491102,0.875405,-0.010899,0.518401,0.895561,-0.024276,0,0,0,0,0,0,0,0,0,1,0,0,0,0,0
1914,'2025/06/30 16:29:23:196',84,0.365113,0.010696,-0.050014,-0.049381,-0.04586,0.099252,0.405139,0.309057,0.615864,0.835394,-0.05606,0.529511,0.848019,-0.007874,0.491102,0.875405,-0.010899,0.518401,0.895561,-0.024276,0,0,0,0,0,0,0,0,0,1,0,0,0,0,0
1915,'2025/06/30 16:29:23:201',84,0.365113,0.010696,-0.050014,-0.049381,-0.04586,0.099252,0.405139,0.309057,0.615864,0.835394,-0.05606,0.529511,0.848019,-0.007874,0.491102,0.875405,-0.010899,0.518401,0.895561,-0.024276,0,0,0,0,0,0,0,0,0,1,0,0,0,0,0
1916,'2025/06/30 16:29:23:206',84,0.365113,0.010696,-0.050014,-0.049381,-0.04586,0.099252,0.405139,0.309057,0.615864,0.835394,-0.05606,0.529511,0.848019,-0.007874,0.491102,0.875405,-0.010899,0.518401,0.895561,-0.024276,0,0,0,0,0,0,0,0,0,1,0,0,0,0,0
1917,'2025/06/30 16:29:23:210',84,0.365113,0.010696,-0.050014,-0.049381,-0.04586,0.099252,0.405139,0.309057,0.615864,0.835394,-0.05606,0.529511,0.848019,-0.007874,0.491102,0.875405,-0.010899,0.518401,0.895561,-0.024276,0,0,0,0,0,0,0,0,0,1,0,0,0,0,0
1918,'2025/06/30 16:29:23:217',84,0.365113,0.010696,-0.050014,-0.049381,-0.04586,0.099252,0.405139,0.309057,0.615864,0.835394,-0.05606,0.529511,0.848019,-0.007874,0.491102,0.875405,-0.010899,0.518401,0.895561,-0.024276,0,0,0,0,0,0,0,0,0,1,0,0,0,0,0
1919,'2025/06/30 16:29:23:222',84,0.365113,0.010696,-0.050014,-0.049381,-0.04586,0.099252,0.405139,0.309057,0.615864,0.835394,-0.05606,0.529511,0.848019,-0.007874,0.491102,0.875405,-0.010899,0.518401,0.895561,-0.024276,0,0,0,0,0,0,0,0,0,1,0,0,0,0,0
1920,'2025/06/30 16:29:23:227',84,0.365113,0.010696,-0.050014,-0.049381,-0.04586,0.099252,0.405139,0.309057,0.615864,0.835394,-0.05606,0.529511,0.848019,-0.007874,0.491102,0.875405,-0.010899,0.518401,0.895561,-0.024276,0,0,0,0,0,0,0,0,0,1,0,0,0,0,0
1921,'2025/06/30 16:29:23:233',84,0.365113,0.010696,-0.050014,-0.049381,-0.04586,0.099252,0.405139,0.309057,0.615864,0.835394,-0.05606,0.529511,0.848019,-0.007874,0.491102,0.875405,-0.010899,0.518401,0.895561,-0.024276,0,0,0,0,0,0,0,0,0,1,0,0,0,0,0
1922,'2025/06/30 16:29:23:240',84,0.365113,0.010696,-0.050014,-0.049381,-0.04586,0.099252,0.405139,0.309057,0.615864,0.835394,-0.05606,0.529511,0.848019,-0.007874,0.491102,0.875405,-0.010899,0.518401,0.895561,-0.024276,0,0,0,0,0,0,0,0,0,1,0,0,0,0,0
1923,'2025/06/30 16:29:23:245',84,0.365113,0.010696,-0.050014,-0.049381,-0.04586,0.099252,0.405139,0.309057,0.615864,0.835394,-0.05606,0.529511,0.848019,-0.007874,0.491102,0.875405,-0.010899,0.518401,0.895561,-0.024276,0,0,0,0,0,0,0,0,0,1,0,0,0,0,0
1924,'2025/06/30 16:29:23:250',84,0.365113,0.010696,-0.050014,-0.049381,-0.04586,0.099252,0.405139,0.309057,0.615864,0.835394,-0.05606,0.529511,0.848019,-0.007874,0.491102,0.875405,-0.010899,0.518401,0.895561,-0.024276,0,0,0,0,0,0,0,0,0,1,0,0,0,0,0
1925,'2025/06/30 16:30:05:894',85,0.48642,-0.001957,-0.017333,-0.017947,-0.02137,0.037335,0.458941,0.263367,-0.001245,0.840277,0.020258,0.001368,0.821544,-0.007177,-0.019662,0.802223,-0.011584,0.032591,0.723982,-0.019201,0,0,0,0,0,0,0,0,0,0,1,0,0,0,0
1926,'2025/06/30 16:30:05:900',85,0.48642,-0.001957,-0.017333,-0.017947,-0.02137,0.037335,0.458941,0.263367,-0.001245,0.840277,0.020258,0.001368,0.821544,-0.007177,-0.019662,0.802223,-0.011584,0.032591,0.723982,-0.019201,0,0,0,0,0,0,0,0,0,0,1,0,0,0,0
1927,'2025/06/30 16:30:05:905',85,0.48642,-0.001957,-0.017333,-0.017947,-0.02137,0.037335,0.458941,0.263367,-0.001245,0.840277,0.020258,0.001368,0.821544,-0.007177,-0.019662,0.802223,-0.011584,0.032591,0.723982,-0.019201,0,0,0,0,0,0,0,0,0,0,1,0,0,0,0
1928,'2025/06/30 16:30:05:910',85,0.48642,-0.001957,-0.017333,-0.017947,-0.02137,0.037335,0.458941,0.263367,-0.001245,0.840277,0.020258,0.001368,0.821544,-0.007177,-0.019662,0.802223,-0.011584,0.032591,0.723982,-0.019201,0,0,0,0,0,0,0,0,0,0,1,0,0,0,0
1929,'2025/06/30 16:30:05:916',85,0.48642,-0.001957,-0.017333,-0.017947,-0.02137,0.037335,0.458941,0.263367,-0.001245,0.840277,0.020258,0.001368,0.821544,-0.007177,-0.019662,0.802223,-0.011584,0.032591,0.723982,-0.019201,0,0,0,0,0,0,0,0,0,0,1,0,0,0,0
1930,'2025/06/30 16:30:05:921',85,0.48642,-0.001957,-0.017333,-0.017947,-0.02137,0.037335,0.458941,0.263367,-0.001245,0.840277,0.020258,0.001368,0.821544,-0.007177,-0.019662,0.802223,-0.011584,0.032591,0.723982,-0.019201,0,0,0,0,0,0,0,0,0,0,1,0,0,0,0
1931,'2025/06/30 16:30:05:926',85,0.48642,-0.001957,-0.017333,-0.017947,-0.02137,0.037335,0.458941,0.263367,-0.001245,0.840277,0.020258,0.001368,0.821544,-0.007177,-0.019662,0.802223,-0.011584,0.032591,0.723982,-0.019201,0,0,0,0,0,0,0,0,0,0,1,0,0,0,0
1932,'2025/06/30 16:30:05:931',85,0.48642,-0.001957,-0.017333,-0.017947,-0.02137,0.037335,0.458941,0.263367,-0.001245,0.840277,0.020258,0.001368,0.821544,-0.007177,-0.019662,0.802223,-0.011584,0.032591,0.723982,-0.019201,0,0,0,0,0,0,0,0,0,0,1,0,0,0,0
1933,'2025/06/30 16:30:05:935',85,0.48642,-0.001957,-0.017333,-0.017947,-0.02137,0.037335,0.458941,0.263367,-0.001245,0.840277,0.020258,0.001368,0.821544,-0.007177,-0.019662,0.802223,-0.011584,0.032591,0.723982,-0.019201,0,0,0,0,0,0,0,0,0,0,1,0,0,0,0
1934,'2025/06/30 16:30:05:940',85,0.48642,-0.001957,-0.017333,-0.017947,-0.02137,0.037335,0.458941,0.263367,-0.001245,0.840277,0.020258,0.001368,0.821544,-0.007177,-0.019662,0.802223,-0.011584,0.032591,0.723982,-0.019201,0,0,0,0,0,0,0,0,0,0,1,0,0,0,0
1935,'2025/06/30 16:30:05:944',85,0.48642,-0.001957,-0.017333,-0.017947,-0.02137,0.037335,0.458941,0.263367,-0.001245,0.840277,0.020258,0.001368,0.821544,-0.007177,-0.019662,0.802223,-0.011584,0.032591,0.723982,-0.019201,0,0,0,0,0,0,0,0,0,0,1,0,0,0,0
1936,'2025/06/30 16:30:05:949',85,0.48642,-0.001957,-0.017333,-0.017947,-0.02137,0.037335,0.458941,0.263367,-0.001245,0.840277,0.020258,0.001368,0.821544,-0.007177,-0.019662,0.802223,-0.011584,0.032591,0.723982,-0.019201,0,0,0,0,0,0,0,0,0,0,1,0,0,0,0
1937,'2025/06/30 16:30:05:955',85,0.48642,-0.001957,-0.017333,-0.017947,-0.02137,0.037335,0.458941,0.263367,-0.001245,0.840277,0.020258,0.001368,0.821544,-0.007177,-0.019662,0.802223,-0.011584,0.032591,0.723982,-0.019201,0,0,0,0,0,0,0,0,0,0,1,0,0,0,0
1938,'2025/06/30 16:30:05:961',85,0.48642,-0.001957,-0.017333,-0.017947,-0.02137,0.037335,0.458941,0.263367,-0.001245,0.840277,0.020258,0.001368,0.821544,-0.007177,-0.019662,0.802223,-0.011584,0.032591,0.723982,-0.019201,0,0,0,0,0,0,0,0,0,0,1,0,0,0,0
1939,'2025/06/30 16:30:05:967',85,0.48642,-0.001957,-0.017333,-0.017947,-0.02137,0.037335,0.458941,0.263367,-0.001245,0.840277,0.020258,0.001368,0.821544,-0.007177,-0.019662,0.802223,-0.011584,0.032591,0.723982,-0.019201,0,0,0,0,0,0,0,0,0,0,1,0,0,0,0
1940,'2025/06/30 16:30:05:973',85,0.48642,-0.001957,-0.017333,-0.017947,-0.02137,0.037335,0.458941,0.263367,-0.001245,0.840277,0.020258,0.001368,0.821544,-0.007177,-0.019662,0.802223,-0.011584,0.032591,0.723982,-0.019201,0,0,0,0,0,0,0,0,0,0,1,0,0,0,0
1941,'2025/06/30 16:30:05:978',85,0.48642,-0.001957,-0.017333,-0.017947,-0.02137,0.037335,0.458941,0.263367,-0.001245,0.840277,0.020258,0.001368,0.821544,-0.007177,-0.019662,0.802223,-0.011584,0.032591,0.723982,-0.019201,0,0,0,0,0,0,0,0,0,0,1,0,0,0,0
1942,'2025/06/30 16:30:05:984',85,0.48642,-0.001957,-0.017333,-0.017947,-0.02137,0.037335,0.458941,0.263367,-0.001245,0.840277,0.020258,0.001368,0.821544,-0.007177,-0.019662,0.802223,-0.011584,0.032591,0.723982,-0.019201,0,0,0,0,0,0,0,0,0,0,1,0,0,0,0
1943,'2025/06/30 16:30:05:990',85,0.48642,-0.001957,-0.017333,-0.017947,-0.02137,0.037335,0.458941,0.263367,-0.001245,0.840277,0.020258,0.001368,0.821544,-0.007177,-0.019662,0.802223,-0.011584,0.032591,0.723982,-0.019201,0,0,0,0,0,0,0,0,0,0,1,0,0,0,0
1944,'2025/06/30 16:30:05:995',85,0.48642,-0.001957,-0.017333,-0.017947,-0.02137,0.037335,0.458941,0.263367,-0.001245,0.840277,0.020258,0.001368,0.821544,-0.007177,-0.019662,0.802223,-0.011584,0.032591,0.723982,-0.019201,0,0,0,0,0,0,0,0,0,0,1,0,0,0,0
1945,'2025/06/30 16:30:06:000',85,0.48642,-0.001957,-0.017333,-0.017947,-0.02137,0.037335,0.458941,0.263367,-0.001245,0.840277,0.020258,0.001368,0.821544,-0.007177,-0.019662,0.802223,-0.011584,0.032591,0.723982,-0.019201,0,0,0,0,0,0,0,0,0,0,1,0,0,0,0
1946,'2025/06/30 16:30:06:006',85,0.48642,-0.001957,-0.017333,-0.017947,-0.02137,0.037335,0.458941,0.263367,-0.001245,0.840277,0.020258,0.001368,0.821544,-0.007177,-0.019662,0.802223,-0.011584,0.032591,0.723982,-0.019201,0,0,0,0,0,0,0,0,0,0,1,0,0,0,0
1947,'2025/06/30 16:30:06:012',85,0.48642,-0.001957,-0.017333,-0.017947,-0.02137,0.037335,0.458941,0.263367,-0.001245,0.840277,0.020258,0.001368,0.821544,-0.007177,-0.019662,0.802223,-0.011584,0.032591,0.723982,-0.019201,0,0,0,0,0,0,0,0,0,0,1,0,0,0,0
1948,'2025/06/30 16:30:06:017',85,0.48642,-0.001957,-0.017333,-0.017947,-0.02137,0.037335,0.458941,0.263367,-0.001245,0.840277,0.020258,0.001368,0.821544,-0.007177,-0.019662,0.802223,-0.011584,0.032591,0.723982,-0.019201,0,0,0,0,0,0,0,0,0,0,1,0,0,0,0
1949,'2025/06/30 16:30:06:023',85,0.48642,-0.001957,-0.017333,-0.017947,-0.02137,0.037335,0.458941,0.263367,-0.001245,0.840277,0.020258,0.001368,0.821544,-0.007177,-0.019662,0.802223,-0.011584,0.032591,0.723982,-0.019201,0,0,0,0,0,0,0,0,0,0,1,0,0,0,0
1950,'2025/06/30 16:30:06:028',85,0.48642,-0.001957,-0.017333,-0.017947,-0.02137,0.037335,0.458941,0.263367,-0.001245,0.840277,0.020258,0.001368,0.821544,-0.007177,-0.019662,0.802223,-0.011584,0.032591,0.723982,-0.019201,0,0,0,0,0,0,0,0,0,0,1,0,0,0,0
1951,'2025/06/30 16:30:09:542',86,0.512747,-0.001957,-0.017333,-0.017947,-0.02137,-0.051195,0.453732,0.063253,-0.001245,0.840277,0.020258,0.001368,0.821544,-0.007177,-0.019662,0.802223,-0.011584,0.032591,0.723982,-0.019201,0,0,0,0,0,0,0,0,0,0,1,0,0,0,0
1952,'2025/06/30 16:30:09:547',86,0.512747,-0.001957,-0.017333,-0.017947,-0.02137,-0.051195,0.453732,0.063253,-0.001245,0.840277,0.020258,0.001368,0.821544,-0.007177,-0.019662,0.802223,-0.011584,0.032591,0.723982,-0.019201,0,0,0,0,0,0,0,0,0,0,1,0,0,0,0
1953,'2025/06/30 16:30:09:553',86,0.512747,-0.001957,-0.017333,-0.017947,-0.02137,-0.051195,0.453732,0.063253,-0.001245,0.840277,0.020258,0.001368,0.821544,-0.007177,-0.019662,0.802223,-0.011584,0.032591,0.723982,-0.019201,0,0,0,0,0,0,0,0,0,0,1,0,0,0,0
1954,'2025/06/30 16:30:09:558',86,0.512747,-0.001957,-0.017333,-0.017947,-0.02137,-0.051195,0.453732,0.063253,-0.001245,0.840277,0.020258,0.001368,0.821544,-0.007177,-0.019662,0.802223,-0.011584,0.032591,0.723982,-0.019201,0,0,0,0,0,0,0,0,0,0,1,0,0,0,0
1955,'2025/06/30 16:30:09:564',86,0.512747,-0.001957,-0.017333,-0.017947,-0.02137,-0.051195,0.453732,0.063253,-0.001245,0.840277,0.020258,0.001368,0.821544,-0.007177,-0.019662,0.802223,-0.011584,0.032591,0.723982,-0.019201,0,0,0,0,0,0,0,0,0,0,1,0,0,0,0
1956,'2025/06/30 16:30:09:569',86,0.512747,-0.001957,-0.017333,-0.017947,-0.02137,-0.051195,0.453732,0.063253,-0.001245,0.840277,0.020258,0.001368,0.821544,-0.007177,-0.019662,0.802223,-0.011584,0.032591,0.723982,-0.019201,0,0,0,0,0,0,0,0,0,0,1,0,0,0,0
1957,'2025/06/30 16:30:09:574',86,0.512747,-0.001957,-0.017333,-0.017947,-0.02137,-0.051195,0.453732,0.063253,-0.001245,0.840277,0.020258,0.001368,0.821544,-0.007177,-0.019662,0.802223,-0.011584,0.032591,0.723982,-0.019201,0,0,0,0,0,0,0,0,0,0,1,0,0,0,0
1958,'2025/06/30 16:30:09:579',86,0.512747,-0.001957,-0.017333,-0.017947,-0.02137,-0.051195,0.453732,0.063253,-0.001245,0.840277,0.020258,0.001368,0.821544,-0.007177,-0.019662,0.802223,-0.011584,0.032591,0.723982,-0.019201,0,0,0,0,0,0,0,0,0,0,1,0,0,0,0
1959,'2025/06/30 16:30:09:586',86,0.512747,-0.001957,-0.017333,-0.017947,-0.02137,-0.051195,0.453732,0.063253,-0.001245,0.840277,0.020258,0.001368,0.821544,-0.007177,-0.019662,0.802223,-0.011584,0.032591,0.723982,-0.019201,0,0,0,0,0,0,0,0,0,0,1,0,0,0,0
1960,'2025/06/30 16:30:09:592',86,0.512747,-0.001957,-0.017333,-0.017947,-0.02137,-0.051195,0.453732,0.063253,-0.001245,0.840277,0.020258,0.001368,0.821544,-0.007177,-0.019662,0.802223,-0.011584,0.032591,0.723982,-0.019201,0,0,0,0,0,0,0,0,0,0,1,0,0,0,0
1961,'2025/06/30 16:30:09:598',86,0.512747,-0.001957,-0.017333,-0.017947,-0.02137,-0.051195,0.453732,0.063253,-0.001245,0.840277,0.020258,0.001368,0.821544,-0.007177,-0.019662,0.802223,-0.011584,0.032591,0.723982,-0.019201,0,0,0,0,0,0,0,0,0,0,1,0,0,0,0
1962,'2025/06/30 16:30:09:602',86,0.512747,-0.001957,-0.017333,-0.017947,-0.02137,-0.051195,0.453732,0.063253,-0.001245,0.840277,0.020258,0.001368,0.821544,-0.007177,-0.019662,0.802223,-0.011584,0.032591,0.723982,-0.019201,0,0,0,0,0,0,0,0,0,0,1,0,0,0,0
1963,'2025/06/30 16:30:09:608',86,0.512747,-0.001957,-0.017333,-0.017947,-0.02137,-0.051195,0.453732,0.063253,-0.001245,0.840277,0.020258,0.001368,0.821544,-0.007177,-0.019662,0.802223,-0.011584,0.032591,0.723982,-0.019201,0,0,0,0,0,0,0,0,0,0,1,0,0,0,0
1964,'2025/06/30 16:30:09:613',86,0.512747,-0.001957,-0.017333,-0.017947,-0.02137,-0.051195,0.453732,0.063253,-0.001245,0.840277,0.020258,0.001368,0.821544,-0.007177,-0.019662,0.802223,-0.011584,0.032591,0.723982,-0.019201,0,0,0,0,0,0,0,0,0,0,1,0,0,0,0
1965,'2025/06/30 16:30:09:620',86,0.512747,-0.001957,-0.017333,-0.017947,-0.02137,-0.051195,0.453732,0.063253,-0.001245,0.840277,0.020258,0.001368,0.821544,-0.007177,-0.019662,0.802223,-0.011584,0.032591,0.723982,-0.019201,0,0,0,0,0,0,0,0,0,0,1,0,0,0,0
1966,'2025/06/30 16:30:09:625',86,0.512747,-0.001957,-0.017333,-0.017947,-0.02137,-0.051195,0.453732,0.063253,-0.001245,0.840277,0.020258,0.001368,0.821544,-0.007177,-0.019662,0.802223,-0.011584,0.032591,0.723982,-0.019201,0,0,0,0,0,0,0,0,0,0,1,0,0,0,0
1967,'2025/06/30 16:30:09:631',86,0.512747,-0.001957,-0.017333,-0.017947,-0.02137,-0.051195,0.453732,0.063253,-0.001245,0.840277,0.020258,0.001368,0.821544,-0.007177,-0.019662,0.802223,-0.011584,0.032591,0.723982,-0.019201,0,0,0,0,0,0,0,0,0,0,1,0,0,0,0
1968,'2025/06/30 16:30:09:636',86,0.512747,-0.001957,-0.017333,-0.017947,-0.02137,-0.051195,0.453732,0.063253,-0.001245,0.840277,0.020258,0.001368,0.821544,-0.007177,-0.019662,0.802223,-0.011584,0.032591,0.723982,-0.019201,0,0,0,0,0,0,0,0,0,0,1,0,0,0,0
1969,'2025/06/30 16:30:09:641',86,0.512747,-0.001957,-0.017333,-0.017947,-0.02137,-0.051195,0.453732,0.063253,-0.001245,0.840277,0.020258,0.001368,0.821544,-0.007177,-0.019662,0.802223,-0.011584,0.032591,0.723982,-0.019201,0,0,0,0,0,0,0,0,0,0,1,0,0,0,0
1970,'2025/06/30 16:30:09:647',86,0.512747,-0.001957,-0.017333,-0.017947,-0.02137,-0.051195,0.453732,0.063253,-0.001245,0.840277,0.020258,0.001368,0.821544,-0.007177,-0.019662,0.802223,-0.011584,0.032591,0.723982,-0.019201,0,0,0,0,0,0,0,0,0,0,1,0,0,0,0
1971,'2025/06/30 16:30:09:653',86,0.512747,-0.001957,-0.017333,-0.017947,-0.02137,-0.051195,0.453732,0.063253,-0.001245,0.840277,0.020258,0.001368,0.821544,-0.007177,-0.019662,0.802223,-0.011584,0.032591,0.723982,-0.019201,0,0,0,0,0,0,0,0,0,0,1,0,0,0,0
1972,'2025/06/30 16:30:09:659',86,0.512747,-0.001957,-0.017333,-0.017947,-0.02137,-0.051195,0.453732,0.063253,-0.001245,0.840277,0.020258,0.001368,0.821544,-0.007177,-0.019662,0.802223,-0.011584,0.032591,0.723982,-0.019201,0,0,0,0,0,0,0,0,0,0,1,0,0,0,0
1973,'2025/06/30 16:30:09:665',86,0.512747,-0.001957,-0.017333,-0.017947,-0.02137,-0.051195,0.453732,0.063253,-0.001245,0.840277,0.020258,0.001368,0.821544,-0.007177,-0.019662,0.802223,-0.011584,0.032591,0.723982,-0.019201,0,0,0,0,0,0,0,0,0,0,1,0,0,0,0
1974,'2025/06/30 16:30:12:028',87,0.50786,-0.001957,-0.017333,-0.017947,-0.02137,0.001286,0.396877,0.032501,-0.001245,0.840277,0.020258,0.001368,0.821544,-0.007177,-0.019662,0.802223,-0.011584,0.032591,0.723982,-0.019201,0,0,0,0,0,0,0,0,0,0,1,0,0,0,0
1975,'2025/06/30 16:30:12:033',87,0.50786,-0.001957,-0.017333,-0.017947,-0.02137,0.001286,0.396877,0.032501,-0.001245,0.840277,0.020258,0.001368,0.821544,-0.007177,-0.019662,0.802223,-0.011584,0.032591,0.723982,-0.019201,0,0,0,0,0,0,0,0,0,0,1,0,0,0,0
1976,'2025/06/30 16:30:12:037',87,0.50786,-0.001957,-0.017333,-0.017947,-0.02137,0.001286,0.396877,0.032501,-0.001245,0.840277,0.020258,0.001368,0.821544,-0.007177,-0.019662,0.802223,-0.011584,0.032591,0.723982,-0.019201,0,0,0,0,0,0,0,0,0,0,1,0,0,0,0
1977,'2025/06/30 16:30:12:042',87,0.50786,-0.001957,-0.017333,-0.017947,-0.02137,0.001286,0.396877,0.032501,-0.001245,0.840277,0.020258,0.001368,0.821544,-0.007177,-0.019662,0.802223,-0.011584,0.032591,0.723982,-0.019201,0,0,0,0,0,0,0,0,0,0,1,0,0,0,0
1978,'2025/06/30 16:30:12:047',87,0.50786,-0.001957,-0.017333,-0.017947,-0.02137,0.001286,0.396877,0.032501,-0.001245,0.840277,0.020258,0.001368,0.821544,-0.007177,-0.019662,0.802223,-0.011584,0.032591,0.723982,-0.019201,0,0,0,0,0,0,0,0,0,0,1,0,0,0,0
1979,'2025/06/30 16:30:12:053',87,0.50786,-0.001957,-0.017333,-0.017947,-0.02137,0.001286,0.396877,0.032501,-0.001245,0.840277,0.020258,0.001368,0.821544,-0.007177,-0.019662,0.802223,-0.011584,0.032591,0.723982,-0.019201,0,0,0,0,0,0,0,0,0,0,1,0,0,0,0
1980,'2025/06/30 16:30:12:059',87,0.50786,-0.001957,-0.017333,-0.017947,-0.02137,0.001286,0.396877,0.032501,-0.001245,0.840277,0.020258,0.001368,0.821544,-0.007177,-0.019662,0.802223,-0.011584,0.032591,0.723982,-0.019201,0,0,0,0,0,0,0,0,0,0,1,0,0,0,0
1981,'2025/06/30 16:30:12:063',87,0.50786,-0.001957,-0.017333,-0.017947,-0.02137,0.001286,0.396877,0.032501,-0.001245,0.840277,0.020258,0.001368,0.821544,-0.007177,-0.019662,0.802223,-0.011584,0.032591,0.723982,-0.019201,0,0,0,0,0,0,0,0,0,0,1,0,0,0,0
1982,'2025/06/30 16:30:12:069',87,0.50786,-0.001957,-0.017333,-0.017947,-0.02137,0.001286,0.396877,0.032501,-0.001245,0.840277,0.020258,0.001368,0.821544,-0.007177,-0.019662,0.802223,-0.011584,0.032591,0.723982,-0.019201,0,0,0,0,0,0,0,0,0,0,1,0,0,0,0
1983,'2025/06/30 16:30:12:075',87,0.50786,-0.001957,-0.017333,-0.017947,-0.02137,0.001286,0.396877,0.032501,-0.001245,0.840277,0.020258,0.001368,0.821544,-0.007177,-0.019662,0.802223,-0.011584,0.032591,0.723982,-0.019201,0,0,0,0,0,0,0,0,0,0,1,0,0,0,0
1984,'2025/06/30 16:30:12:080',87,0.50786,-0.001957,-0.017333,-0.017947,-0.02137,0.001286,0.396877,0.032501,-0.001245,0.840277,0.020258,0.001368,0.821544,-0.007177,-0.019662,0.802223,-0.011584,0.032591,0.723982,-0.019201,0,0,0,0,0,0,0,0,0,0,1,0,0,0,0
1985,'2025/06/30 16:30:12:087',87,0.50786,-0.001957,-0.017333,-0.017947,-0.02137,0.001286,0.396877,0.032501,-0.001245,0.840277,0.020258,0.001368,0.821544,-0.007177,-0.019662,0.802223,-0.011584,0.032591,0.723982,-0.019201,0,0,0,0,0,0,0,0,0,0,1,0,0,0,0
1986,'2025/06/30 16:30:12:090',87,0.50786,-0.001957,-0.017333,-0.017947,-0.02137,0.001286,0.396877,0.032501,-0.001245,0.840277,0.020258,0.001368,0.821544,-0.007177,-0.019662,0.802223,-0.011584,0.032591,0.723982,-0.019201,0,0,0,0,0,0,0,0,0,0,1,0,0,0,0
1987,'2025/06/30 16:30:12:096',87,0.50786,-0.001957,-0.017333,-0.017947,-0.02137,0.001286,0.396877,0.032501,-0.001245,0.840277,0.020258,0.001368,0.821544,-0.007177,-0.019662,0.802223,-0.011584,0.032591,0.723982,-0.019201,0,0,0,0,0,0,0,0,0,0,1,0,0,0,0
1988,'2025/06/30 16:30:12:102',87,0.50786,-0.001957,-0.017333,-0.017947,-0.02137,0.001286,0.396877,0.032501,-0.001245,0.840277,0.020258,0.001368,0.821544,-0.007177,-0.019662,0.802223,-0.011584,0.032591,0.723982,-0.019201,0,0,0,0,0,0,0,0,0,0,1,0,0,0,0
1989,'2025/06/30 16:30:12:108',87,0.50786,-0.001957,-0.017333,-0.017947,-0.02137,0.001286,0.396877,0.032501,-0.001245,0.840277,0.020258,0.001368,0.821544,-0.007177,-0.019662,0.802223,-0.011584,0.032591,0.723982,-0.019201,0,0,0,0,0,0,0,0,0,0,1,0,0,0,0
1990,'2025/06/30 16:30:12:114',87,0.50786,-0.001957,-0.017333,-0.017947,-0.02137,0.001286,0.396877,0.032501,-0.001245,0.840277,0.020258,0.001368,0.821544,-0.007177,-0.019662,0.802223,-0.011584,0.032591,0.723982,-0.019201,0,0,0,0,0,0,0,0,0,0,1,0,0,0,0
1991,'2025/06/30 16:30:12:119',87,0.50786,-0.001957,-0.017333,-0.017947,-0.02137,0.001286,0.396877,0.032501,-0.001245,0.840277,0.020258,0.001368,0.821544,-0.007177,-0.019662,0.802223,-0.011584,0.032591,0.723982,-0.019201,0,0,0,0,0,0,0,0,0,0,1,0,0,0,0
1992,'2025/06/30 16:30:12:123',87,0.50786,-0.001957,-0.017333,-0.017947,-0.02137,0.001286,0.396877,0.032501,-0.001245,0.840277,0.020258,0.001368,0.821544,-0.007177,-0.019662,0.802223,-0.011584,0.032591,0.723982,-0.019201,0,0,0,0,0,0,0,0,0,0,1,0,0,0,0
1993,'2025/06/30 16:30:12:130',87,0.50786,-0.001957,-0.017333,-0.017947,-0.02137,0.001286,0.396877,0.032501,-0.001245,0.840277,0.020258,0.001368,0.821544,-0.007177,-0.019662,0.802223,-0.011584,0.032591,0.723982,-0.019201,0,0,0,0,0,0,0,0,0,0,1,0,0,0,0
1994,'2025/06/30 16:30:12:136',87,0.50786,-0.001957,-0.017333,-0.017947,-0.02137,0.001286,0.396877,0.032501,-0.001245,0.840277,0.020258,0.001368,0.821544,-0.007177,-0.019662,0.802223,-0.011584,0.032591,0.723982,-0.019201,0,0,0,0,0,0,0,0,0,0,1,0,0,0,0
1995,'2025/06/30 16:30:12:141',87,0.50786,-0.001957,-0.017333,-0.017947,-0.02137,0.001286,0.396877,0.032501,-0.001245,0.840277,0.020258,0.001368,0.821544,-0.007177,-0.019662,0.802223,-0.011584,0.032591,0.723982,-0.019201,0,0,0,0,0,0,0,0,0,0,1,0,0,0,0
1996,'2025/06/30 16:30:12:145',87,0.50786,-0.001957,-0.017333,-0.017947,-0.02137,0.001286,0.396877,0.032501,-0.001245,0.840277,0.020258,0.001368,0.821544,-0.007177,-0.019662,0.802223,-0.011584,0.032591,0.723982,-0.019201,0,0,0,0,0,0,0,0,0,0,1,0,0,0,0
1997,'2025/06/30 16:30:12:150',87,0.50786,-0.001957,-0.017333,-0.017947,-0.02137,0.001286,0.396877,0.032501,-0.001245,0.840277,0.020258,0.001368,0.821544,-0.007177,-0.019662,0.802223,-0.011584,0.032591,0.723982,-0.019201,0,0,0,0,0,0,0,0,0,0,1,0,0,0,0
1998,'2025/06/30 16:30:12:156',87,0.50786,-0.001957,-0.017333,-0.017947,-0.02137,0.001286,0.396877,0.032501,-0.001245,0.840277,0.020258,0.001368,0.821544,-0.007177,-0.019662,0.802223,-0.011584,0.032591,0.723982,-0.019201,0,0,0,0,0,0,0,0,0,0,1,0,0,0,0
1999,'2025/06/30 16:30:41:718',88,0.50786,-0.006767,-0.009611,-0.012012,-0.027696,0.001286,0.396877,0.032501,0.063793,0.896152,0.018049,-0.125158,0.958184,-0.013017,-0.136415,0.944172,-0.016503,0.162133,0.914955,-0.027662,0,0,0,0,0,0,0,0,0,0,1,0,0,0,0
2000,'2025/06/30 16:30:41:723',88,0.50786,-0.006767,-0.009611,-0.012012,-0.027696,0.001286,0.396877,0.032501,0.063793,0.896152,0.018049,-0.125158,0.958184,-0.013017,-0.136415,0.944172,-0.016503,0.162133,0.914955,-0.027662,0,0,0,0,0,0,0,0,0,0,1,0,0,0,0
2001,'2025/06/30 16:30:41:728',88,0.50786,-0.006767,-0.009611,-0.012012,-0.027696,0.001286,0.396877,0.032501,0.063793,0.896152,0.018049,-0.125158,0.958184,-0.013017,-0.136415,0.944172,-0.016503,0.162133,0.914955,-0.027662,0,0,0,0,0,0,0,0,0,0,1,0,0,0,0
2002,'2025/06/30 16:30:41:732',88,0.50786,-0.006767,-0.009611,-0.012012,-0.027696,0.001286,0.396877,0.032501,0.063793,0.896152,0.018049,-0.125158,0.958184,-0.013017,-0.136415,0.944172,-0.016503,0.162133,0.914955,-0.027662,0,0,0,0,0,0,0,0,0,0,1,0,0,0,0
2003,'2025/06/30 16:30:41:737',88,0.50786,-0.006767,-0.009611,-0.012012,-0.027696,0.001286,0.396877,0.032501,0.063793,0.896152,0.018049,-0.125158,0.958184,-0.013017,-0.136415,0.944172,-0.016503,0.162133,0.914955,-0.027662,0,0,0,0,0,0,0,0,0,0,1,0,0,0,0
2004,'2025/06/30 16:30:41:742',88,0.50786,-0.006767,-0.009611,-0.012012,-0.027696,0.001286,0.396877,0.032501,0.063793,0.896152,0.018049,-0.125158,0.958184,-0.013017,-0.136415,0.944172,-0.016503,0.162133,0.914955,-0.027662,0,0,0,0,0,0,0,0,0,0,1,0,0,0,0
2005,'2025/06/30 16:30:41:747',88,0.50786,-0.006767,-0.009611,-0.012012,-0.027696,0.001286,0.396877,0.032501,0.063793,0.896152,0.018049,-0.125158,0.958184,-0.013017,-0.136415,0.944172,-0.016503,0.162133,0.914955,-0.027662,0,0,0,0,0,0,0,0,0,0,1,0,0,0,0
2006,'2025/06/30 16:30:41:751',88,0.50786,-0.006767,-0.009611,-0.012012,-0.027696,0.001286,0.396877,0.032501,0.063793,0.896152,0.018049,-0.125158,0.958184,-0.013017,-0.136415,0.944172,-0.016503,0.162133,0.914955,-0.027662,0,0,0,0,0,0,0,0,0,0,1,0,0,0,0
2007,'2025/06/30 16:30:41:756',88,0.50786,-0.006767,-0.009611,-0.012012,-0.027696,0.001286,0.396877,0.032501,0.063793,0.896152,0.018049,-0.125158,0.958184,-0.013017,-0.136415,0.944172,-0.016503,0.162133,0.914955,-0.027662,0,0,0,0,0,0,0,0,0,0,1,0,0,0,0
2008,'2025/06/30 16:30:41:761',88,0.50786,-0.006767,-0.009611,-0.012012,-0.027696,0.001286,0.396877,0.032501,0.063793,0.896152,0.018049,-0.125158,0.958184,-0.013017,-0.136415,0.944172,-0.016503,0.162133,0.914955,-0.027662,0,0,0,0,0,0,0,0,0,0,1,0,0,0,0
2009,'2025/06/30 16:30:41:767',88,0.50786,-0.006767,-0.009611,-0.012012,-0.027696,0.001286,0.396877,0.032501,0.063793,0.896152,0.018049,-0.125158,0.958184,-0.013017,-0.136415,0.944172,-0.016503,0.162133,0.914955,-0.027662,0,0,0,0,0,0,0,0,0,0,1,0,0,0,0
2010,'2025/06/30 16:30:41:772',88,0.50786,-0.006767,-0.009611,-0.012012,-0.027696,0.001286,0.396877,0.032501,0.063793,0.896152,0.018049,-0.125158,0.958184,-0.013017,-0.136415,0.944172,-0.016503,0.162133,0.914955,-0.027662,0,0,0,0,0,0,0,0,0,0,1,0,0,0,0
2011,'2025/06/30 16:30:41:776',88,0.50786,-0.006767,-0.009611,-0.012012,-0.027696,0.001286,0.396877,0.032501,0.063793,0.896152,0.018049,-0.125158,0.958184,-0.013017,-0.136415,0.944172,-0.016503,0.162133,0.914955,-0.027662,0,0,0,0,0,0,0,0,0,0,1,0,0,0,0
2012,'2025/06/30 16:30:41:783',88,0.50786,-0.006767,-0.009611,-0.012012,-0.027696,0.001286,0.396877,0.032501,0.063793,0.896152,0.018049,-0.125158,0.958184,-0.013017,-0.136415,0.944172,-0.016503,0.162133,0.914955,-0.027662,0,0,0,0,0,0,0,0,0,0,1,0,0,0,0
2013,'2025/06/30 16:30:41:789',88,0.50786,-0.006767,-0.009611,-0.012012,-0.027696,0.001286,0.396877,0.032501,0.063793,0.896152,0.018049,-0.125158,0.958184,-0.013017,-0.136415,0.944172,-0.016503,0.162133,0.914955,-0.027662,0,0,0,0,0,0,0,0,0,0,1,0,0,0,0
2014,'2025/06/30 16:30:41:794',88,0.50786,-0.006767,-0.009611,-0.012012,-0.027696,0.001286,0.396877,0.032501,0.063793,0.896152,0.018049,-0.125158,0.958184,-0.013017,-0.136415,0.944172,-0.016503,0.162133,0.914955,-0.027662,0,0,0,0,0,0,0,0,0,0,1,0,0,0,0
2015,'2025/06/30 16:30:41:800',88,0.50786,-0.006767,-0.009611,-0.012012,-0.027696,0.001286,0.396877,0.032501,0.063793,0.896152,0.018049,-0.125158,0.958184,-0.013017,-0.136415,0.944172,-0.016503,0.162133,0.914955,-0.027662,0,0,0,0,0,0,0,0,0,0,1,0,0,0,0
2016,'2025/06/30 16:30:41:805',88,0.50786,-0.006767,-0.009611,-0.012012,-0.027696,0.001286,0.396877,0.032501,0.063793,0.896152,0.018049,-0.125158,0.958184,-0.013017,-0.136415,0.944172,-0.016503,0.162133,0.914955,-0.027662,0,0,0,0,0,0,0,0,0,0,1,0,0,0,0
2017,'2025/06/30 16:30:41:811',88,0.50786,-0.006767,-0.009611,-0.012012,-0.027696,0.001286,0.396877,0.032501,0.063793,0.896152,0.018049,-0.125158,0.958184,-0.013017,-0.136415,0.944172,-0.016503,0.162133,0.914955,-0.027662,0,0,0,0,0,0,0,0,0,0,1,0,0,0,0
2018,'2025/06/30 16:30:41:816',88,0.50786,-0.006767,-0.009611,-0.012012,-0.027696,0.001286,0.396877,0.032501,0.063793,0.896152,0.018049,-0.125158,0.958184,-0.013017,-0.136415,0.944172,-0.016503,0.162133,0.914955,-0.027662,0,0,0,0,0,0,0,0,0,0,1,0,0,0,0
2019,'2025/06/30 16:30:41:821',88,0.50786,-0.006767,-0.009611,-0.012012,-0.027696,0.001286,0.396877,0.032501,0.063793,0.896152,0.018049,-0.125158,0.958184,-0.013017,-0.136415,0.944172,-0.016503,0.162133,0.914955,-0.027662,0,0,0,0,0,0,0,0,0,0,1,0,0,0,0
2020,'2025/06/30 16:30:41:827',88,0.50786,-0.006767,-0.009611,-0.012012,-0.027696,0.001286,0.396877,0.032501,0.063793,0.896152,0.018049,-0.125158,0.958184,-0.013017,-0.136415,0.944172,-0.016503,0.162133,0.914955,-0.027662,0,0,0,0,0,0,0,0,0,0,1,0,0,0,0
2021,'2025/06/30 16:30:41:831',88,0.50786,-0.006767,-0.009611,-0.012012,-0.027696,0.001286,0.396877,0.032501,0.063793,0.896152,0.018049,-0.125158,0.958184,-0.013017,-0.136415,0.944172,-0.016503,0.162133,0.914955,-0.027662,0,0,0,0,0,0,0,0,0,0,1,0,0,0,0
2022,'2025/06/30 16:30:41:837',88,0.50786,-0.006767,-0.009611,-0.012012,-0.027696,0.001286,0.396877,0.032501,0.063793,0.896152,0.018049,-0.125158,0.958184,-0.013017,-0.136415,0.944172,-0.016503,0.162133,0.914955,-0.027662,0,0,0,0,0,0,0,0,0,0,1,0,0,0,0
2023,'2025/06/30 16:30:41:843',88,0.50786,-0.006767,-0.009611,-0.012012,-0.027696,0.001286,0.396877,0.032501,0.063793,0.896152,0.018049,-0.125158,0.958184,-0.013017,-0.136415,0.944172,-0.016503,0.162133,0.914955,-0.027662,0,0,0,0,0,0,0,0,0,0,1,0,0,0,0
2024,'2025/06/30 16:30:41:848',88,0.50786,-0.006767,-0.009611,-0.012012,-0.027696,0.001286,0.396877,0.032501,0.063793,0.896152,0.018049,-0.125158,0.958184,-0.013017,-0.136415,0.944172,-0.016503,0.162133,0.914955,-0.027662,0,0,0,0,0,0,0,0,0,0,1,0,0,0,0
2025,'2025/06/30 16:30:44:994',89,0.509211,-0.006767,-0.009611,-0.012012,-0.027696,0.018764,0.465406,0.237867,0.063793,0.896152,0.018049,-0.125158,0.958184,-0.013017,-0.136415,0.944172,-0.016503,0.162133,0.914955,-0.027662,0,0,0,0,0,0,0,0,0,0,1,0,0,0,0
2026,'2025/06/30 16:30:44:998',89,0.509211,-0.006767,-0.009611,-0.012012,-0.027696,0.018764,0.465406,0.237867,0.063793,0.896152,0.018049,-0.125158,0.958184,-0.013017,-0.136415,0.944172,-0.016503,0.162133,0.914955,-0.027662,0,0,0,0,0,0,0,0,0,0,1,0,0,0,0
2027,'2025/06/30 16:30:45:003',89,0.509211,-0.006767,-0.009611,-0.012012,-0.027696,0.018764,0.465406,0.237867,0.063793,0.896152,0.018049,-0.125158,0.958184,-0.013017,-0.136415,0.944172,-0.016503,0.162133,0.914955,-0.027662,0,0,0,0,0,0,0,0,0,0,1,0,0,0,0
2028,'2025/06/30 16:30:45:009',89,0.509211,-0.006767,-0.009611,-0.012012,-0.027696,0.018764,0.465406,0.237867,0.063793,0.896152,0.018049,-0.125158,0.958184,-0.013017,-0.136415,0.944172,-0.016503,0.162133,0.914955,-0.027662,0,0,0,0,0,0,0,0,0,0,1,0,0,0,0
2029,'2025/06/30 16:30:45:014',89,0.509211,-0.006767,-0.009611,-0.012012,-0.027696,0.018764,0.465406,0.237867,0.063793,0.896152,0.018049,-0.125158,0.958184,-0.013017,-0.136415,0.944172,-0.016503,0.162133,0.914955,-0.027662,0,0,0,0,0,0,0,0,0,0,1,0,0,0,0
2030,'2025/06/30 16:30:45:021',89,0.509211,-0.006767,-0.009611,-0.012012,-0.027696,0.018764,0.465406,0.237867,0.063793,0.896152,0.018049,-0.125158,0.958184,-0.013017,-0.136415,0.944172,-0.016503,0.162133,0.914955,-0.027662,0,0,0,0,0,0,0,0,0,0,1,0,0,0,0
2031,'2025/06/30 16:30:45:025',89,0.509211,-0.006767,-0.009611,-0.012012,-0.027696,0.018764,0.465406,0.237867,0.063793,0.896152,0.018049,-0.125158,0.958184,-0.013017,-0.136415,0.944172,-0.016503,0.162133,0.914955,-0.027662,0,0,0,0,0,0,0,0,0,0,1,0,0,0,0
2032,'2025/06/30 16:30:45:031',89,0.509211,-0.006767,-0.009611,-0.012012,-0.027696,0.018764,0.465406,0.237867,0.063793,0.896152,0.018049,-0.125158,0.958184,-0.013017,-0.136415,0.944172,-0.016503,0.162133,0.914955,-0.027662,0,0,0,0,0,0,0,0,0,0,1,0,0,0,0
2033,'2025/06/30 16:30:45:038',89,0.509211,-0.006767,-0.009611,-0.012012,-0.027696,0.018764,0.465406,0.237867,0.063793,0.896152,0.018049,-0.125158,0.958184,-0.013017,-0.136415,0.944172,-0.016503,0.162133,0.914955,-0.027662,0,0,0,0,0,0,0,0,0,0,1,0,0,0,0
2034,'2025/06/30 16:30:45:044',89,0.509211,-0.006767,-0.009611,-0.012012,-0.027696,0.018764,0.465406,0.237867,0.063793,0.896152,0.018049,-0.125158,0.958184,-0.013017,-0.136415,0.944172,-0.016503,0.162133,0.914955,-0.027662,0,0,0,0,0,0,0,0,0,0,1,0,0,0,0
2035,'2025/06/30 16:30:45:050',89,0.509211,-0.006767,-0.009611,-0.012012,-0.027696,0.018764,0.465406,0.237867,0.063793,0.896152,0.018049,-0.125158,0.958184,-0.013017,-0.136415,0.944172,-0.016503,0.162133,0.914955,-0.027662,0,0,0,0,0,0,0,0,0,0,1,0,0,0,0
2036,'2025/06/30 16:30:45:055',89,0.509211,-0.006767,-0.009611,-0.012012,-0.027696,0.018764,0.465406,0.237867,0.063793,0.896152,0.018049,-0.125158,0.958184,-0.013017,-0.136415,0.944172,-0.016503,0.162133,0.914955,-0.027662,0,0,0,0,0,0,0,0,0,0,1,0,0,0,0
2037,'2025/06/30 16:30:45:060',89,0.509211,-0.006767,-0.009611,-0.012012,-0.027696,0.018764,0.465406,0.237867,0.063793,0.896152,0.018049,-0.125158,0.958184,-0.013017,-0.136415,0.944172,-0.016503,0.162133,0.914955,-0.027662,0,0,0,0,0,0,0,0,0,0,1,0,0,0,0
2038,'2025/06/30 16:30:45:065',89,0.509211,-0.006767,-0.009611,-0.012012,-0.027696,0.018764,0.465406,0.237867,0.063793,0.896152,0.018049,-0.125158,0.958184,-0.013017,-0.136415,0.944172,-0.016503,0.162133,0.914955,-0.027662,0,0,0,0,0,0,0,0,0,0,1,0,0,0,0
2039,'2025/06/30 16:30:45:071',89,0.509211,-0.006767,-0.009611,-0.012012,-0.027696,0.018764,0.465406,0.237867,0.063793,0.896152,0.018049,-0.125158,0.958184,-0.013017,-0.136415,0.944172,-0.016503,0.162133,0.914955,-0.027662,0,0,0,0,0,0,0,0,0,0,1,0,0,0,0
2040,'2025/06/30 16:30:45:076',89,0.509211,-0.006767,-0.009611,-0.012012,-0.027696,0.018764,0.465406,0.237867,0.063793,0.896152,0.018049,-0.125158,0.958184,-0.013017,-0.136415,0.944172,-0.016503,0.162133,0.914955,-0.027662,0,0,0,0,0,0,0,0,0,0,1,0,0,0,0
2041,'2025/06/30 16:30:45:081',89,0.509211,-0.006767,-0.009611,-0.012012,-0.027696,0.018764,0.465406,0.237867,0.063793,0.896152,0.018049,-0.125158,0.958184,-0.013017,-0.136415,0.944172,-0.016503,0.162133,0.914955,-0.027662,0,0,0,0,0,0,0,0,0,0,1,0,0,0,0
2042,'2025/06/30 16:30:45:087',89,0.509211,-0.006767,-0.009611,-0.012012,-0.027696,0.018764,0.465406,0.237867,0.063793,0.896152,0.018049,-0.125158,0.958184,-0.013017,-0.136415,0.944172,-0.016503,0.162133,0.914955,-0.027662,0,0,0,0,0,0,0,0,0,0,1,0,0,0,0
2043,'2025/06/30 16:30:45:092',89,0.509211,-0.006767,-0.009611,-0.012012,-0.027696,0.018764,0.465406,0.237867,0.063793,0.896152,0.018049,-0.125158,0.958184,-0.013017,-0.136415,0.944172,-0.016503,0.162133,0.914955,-0.027662,0,0,0,0,0,0,0,0,0,0,1,0,0,0,0
2044,'2025/06/30 16:30:45:098',89,0.509211,-0.006767,-0.009611,-0.012012,-0.027696,0.018764,0.465406,0.237867,0.063793,0.896152,0.018049,-0.125158,0.958184,-0.013017,-0.136415,0.944172,-0.016503,0.162133,0.914955,-0.027662,0,0,0,0,0,0,0,0,0,0,1,0,0,0,0
2045,'2025/06/30 16:30:48:449',90,0.358446,-0.006767,-0.009611,-0.012012,-0.027696,0.120781,0.475848,0.434996,0.063793,0.896152,0.018049,-0.125158,0.958184,-0.013017,-0.136415,0.944172,-0.016503,0.162133,0.914955,-0.027662,0,0,0,0,0,0,0,0,0,0,1,0,0,0,0
2046,'2025/06/30 16:30:48:455',90,0.358446,-0.006767,-0.009611,-0.012012,-0.027696,0.120781,0.475848,0.434996,0.063793,0.896152,0.018049,-0.125158,0.958184,-0.013017,-0.136415,0.944172,-0.016503,0.162133,0.914955,-0.027662,0,0,0,0,0,0,0,0,0,0,1,0,0,0,0
2047,'2025/06/30 16:30:48:461',90,0.358446,-0.006767,-0.009611,-0.012012,-0.027696,0.120781,0.475848,0.434996,0.063793,0.896152,0.018049,-0.125158,0.958184,-0.013017,-0.136415,0.944172,-0.016503,0.162133,0.914955,-0.027662,0,0,0,0,0,0,0,0,0,0,1,0,0,0,0
2048,'2025/06/30 16:30:48:468',90,0.358446,-0.006767,-0.009611,-0.012012,-0.027696,0.120781,0.475848,0.434996,0.063793,0.896152,0.018049,-0.125158,0.958184,-0.013017,-0.136415,0.944172,-0.016503,0.162133,0.914955,-0.027662,0,0,0,0,0,0,0,0,0,0,1,0,0,0,0
2049,'2025/06/30 16:30:48:472',90,0.358446,-0.006767,-0.009611,-0.012012,-0.027696,0.120781,0.475848,0.434996,0.063793,0.896152,0.018049,-0.125158,0.958184,-0.013017,-0.136415,0.944172,-0.016503,0.162133,0.914955,-0.027662,0,0,0,0,0,0,0,0,0,0,1,0,0,0,0
2050,'2025/06/30 16:30:48:478',90,0.358446,-0.006767,-0.009611,-0.012012,-0.027696,0.120781,0.475848,0.434996,0.063793,0.896152,0.018049,-0.125158,0.958184,-0.013017,-0.136415,0.944172,-0.016503,0.162133,0.914955,-0.027662,0,0,0,0,0,0,0,0,0,0,1,0,0,0,0
2051,'2025/06/30 16:30:48:483',90,0.358446,-0.006767,-0.009611,-0.012012,-0.027696,0.120781,0.475848,0.434996,0.063793,0.896152,0.018049,-0.125158,0.958184,-0.013017,-0.136415,0.944172,-0.016503,0.162133,0.914955,-0.027662,0,0,0,0,0,0,0,0,0,0,1,0,0,0,0
2052,'2025/06/30 16:30:48:489',90,0.358446,-0.006767,-0.009611,-0.012012,-0.027696,0.120781,0.475848,0.434996,0.063793,0.896152,0.018049,-0.125158,0.958184,-0.013017,-0.136415,0.944172,-0.016503,0.162133,0.914955,-0.027662,0,0,0,0,0,0,0,0,0,0,1,0,0,0,0
2053,'2025/06/30 16:30:48:495',90,0.358446,-0.006767,-0.009611,-0.012012,-0.027696,0.120781,0.475848,0.434996,0.063793,0.896152,0.018049,-0.125158,0.958184,-0.013017,-0.136415,0.944172,-0.016503,0.162133,0.914955,-0.027662,0,0,0,0,0,0,0,0,0,0,1,0,0,0,0
2054,'2025/06/30 16:30:48:499',90,0.358446,-0.006767,-0.009611,-0.012012,-0.027696,0.120781,0.475848,0.434996,0.063793,0.896152,0.018049,-0.125158,0.958184,-0.013017,-0.136415,0.944172,-0.016503,0.162133,0.914955,-0.027662,0,0,0,0,0,0,0,0,0,0,1,0,0,0,0
2055,'2025/06/30 16:30:48:504',90,0.358446,-0.006767,-0.009611,-0.012012,-0.027696,0.120781,0.475848,0.434996,0.063793,0.896152,0.018049,-0.125158,0.958184,-0.013017,-0.136415,0.944172,-0.016503,0.162133,0.914955,-0.027662,0,0,0,0,0,0,0,0,0,0,1,0,0,0,0
2056,'2025/06/30 16:30:48:510',90,0.358446,-0.006767,-0.009611,-0.012012,-0.027696,0.120781,0.475848,0.434996,0.063793,0.896152,0.018049,-0.125158,0.958184,-0.013017,-0.136415,0.944172,-0.016503,0.162133,0.914955,-0.027662,0,0,0,0,0,0,0,0,0,0,1,0,0,0,0
2057,'2025/06/30 16:30:48:515',90,0.358446,-0.006767,-0.009611,-0.012012,-0.027696,0.120781,0.475848,0.434996,0.063793,0.896152,0.018049,-0.125158,0.958184,-0.013017,-0.136415,0.944172,-0.016503,0.162133,0.914955,-0.027662,0,0,0,0,0,0,0,0,0,0,1,0,0,0,0
2058,'2025/06/30 16:30:48:519',90,0.358446,-0.006767,-0.009611,-0.012012,-0.027696,0.120781,0.475848,0.434996,0.063793,0.896152,0.018049,-0.125158,0.958184,-0.013017,-0.136415,0.944172,-0.016503,0.162133,0.914955,-0.027662,0,0,0,0,0,0,0,0,0,0,1,0,0,0,0
2059,'2025/06/30 16:30:48:524',90,0.358446,-0.006767,-0.009611,-0.012012,-0.027696,0.120781,0.475848,0.434996,0.063793,0.896152,0.018049,-0.125158,0.958184,-0.013017,-0.136415,0.944172,-0.016503,0.162133,0.914955,-0.027662,0,0,0,0,0,0,0,0,0,0,1,0,0,0,0
2060,'2025/06/30 16:30:48:530',90,0.358446,-0.006767,-0.009611,-0.012012,-0.027696,0.120781,0.475848,0.434996,0.063793,0.896152,0.018049,-0.125158,0.958184,-0.013017,-0.136415,0.944172,-0.016503,0.162133,0.914955,-0.027662,0,0,0,0,0,0,0,0,0,0,1,0,0,0,0
2061,'2025/06/30 16:30:48:535',90,0.358446,-0.006767,-0.009611,-0.012012,-0.027696,0.120781,0.475848,0.434996,0.063793,0.896152,0.018049,-0.125158,0.958184,-0.013017,-0.136415,0.944172,-0.016503,0.162133,0.914955,-0.027662,0,0,0,0,0,0,0,0,0,0,1,0,0,0,0
2062,'2025/06/30 16:30:48:541',90,0.358446,-0.006767,-0.009611,-0.012012,-0.027696,0.120781,0.475848,0.434996,0.063793,0.896152,0.018049,-0.125158,0.958184,-0.013017,-0.136415,0.944172,-0.016503,0.162133,0.914955,-0.027662,0,0,0,0,0,0,0,0,0,0,1,0,0,0,0
2063,'2025/06/30 16:30:48:548',90,0.358446,-0.006767,-0.009611,-0.012012,-0.027696,0.120781,0.475848,0.434996,0.063793,0.896152,0.018049,-0.125158,0.958184,-0.013017,-0.136415,0.944172,-0.016503,0.162133,0.914955,-0.027662,0,0,0,0,0,0,0,0,0,0,1,0,0,0,0
2064,'2025/06/30 16:30:48:553',90,0.358446,-0.006767,-0.009611,-0.012012,-0.027696,0.120781,0.475848,0.434996,0.063793,0.896152,0.018049,-0.125158,0.958184,-0.013017,-0.136415,0.944172,-0.016503,0.162133,0.914955,-0.027662,0,0,0,0,0,0,0,0,0,0,1,0,0,0,0
2065,'2025/06/30 16:30:48:558',90,0.358446,-0.006767,-0.009611,-0.012012,-0.027696,0.120781,0.475848,0.434996,0.063793,0.896152,0.018049,-0.125158,0.958184,-0.013017,-0.136415,0.944172,-0.016503,0.162133,0.914955,-0.027662,0,0,0,0,0,0,0,0,0,0,1,0,0,0,0
2066,'2025/06/30 16:30:52:967',91,0.474811,-0.006767,-0.009611,-0.012012,-0.027696,-0.06393,0.454674,0.034883,0.063793,0.896152,0.018049,-0.125158,0.958184,-0.013017,-0.136415,0.944172,-0.016503,0.162133,0.914955,-0.027662,0,0,0,0,0,0,0,0,0,0,1,0,0,0,0
2067,'2025/06/30 16:30:52:973',91,0.474811,-0.006767,-0.009611,-0.012012,-0.027696,-0.06393,0.454674,0.034883,0.063793,0.896152,0.018049,-0.125158,0.958184,-0.013017,-0.136415,0.944172,-0.016503,0.162133,0.914955,-0.027662,0,0,0,0,0,0,0,0,0,0,1,0,0,0,0
2068,'2025/06/30 16:30:52:977',91,0.474811,-0.006767,-0.009611,-0.012012,-0.027696,-0.06393,0.454674,0.034883,0.063793,0.896152,0.018049,-0.125158,0.958184,-0.013017,-0.136415,0.944172,-0.016503,0.162133,0.914955,-0.027662,0,0,0,0,0,0,0,0,0,0,1,0,0,0,0
2069,'2025/06/30 16:30:52:983',91,0.474811,-0.006767,-0.009611,-0.012012,-0.027696,-0.06393,0.454674,0.034883,0.063793,0.896152,0.018049,-0.125158,0.958184,-0.013017,-0.136415,0.944172,-0.016503,0.162133,0.914955,-0.027662,0,0,0,0,0,0,0,0,0,0,1,0,0,0,0
2070,'2025/06/30 16:30:52:988',91,0.474811,-0.006767,-0.009611,-0.012012,-0.027696,-0.06393,0.454674,0.034883,0.063793,0.896152,0.018049,-0.125158,0.958184,-0.013017,-0.136415,0.944172,-0.016503,0.162133,0.914955,-0.027662,0,0,0,0,0,0,0,0,0,0,1,0,0,0,0
2071,'2025/06/30 16:30:52:994',91,0.474811,-0.006767,-0.009611,-0.012012,-0.027696,-0.06393,0.454674,0.034883,0.063793,0.896152,0.018049,-0.125158,0.958184,-0.013017,-0.136415,0.944172,-0.016503,0.162133,0.914955,-0.027662,0,0,0,0,0,0,0,0,0,0,1,0,0,0,0
2072,'2025/06/30 16:30:52:999',91,0.474811,-0.006767,-0.009611,-0.012012,-0.027696,-0.06393,0.454674,0.034883,0.063793,0.896152,0.018049,-0.125158,0.958184,-0.013017,-0.136415,0.944172,-0.016503,0.162133,0.914955,-0.027662,0,0,0,0,0,0,0,0,0,0,1,0,0,0,0
2073,'2025/06/30 16:30:53:004',91,0.474811,-0.006767,-0.009611,-0.012012,-0.027696,-0.06393,0.454674,0.034883,0.063793,0.896152,0.018049,-0.125158,0.958184,-0.013017,-0.136415,0.944172,-0.016503,0.162133,0.914955,-0.027662,0,0,0,0,0,0,0,0,0,0,1,0,0,0,0
2074,'2025/06/30 16:30:53:010',91,0.474811,-0.006767,-0.009611,-0.012012,-0.027696,-0.06393,0.454674,0.034883,0.063793,0.896152,0.018049,-0.125158,0.958184,-0.013017,-0.136415,0.944172,-0.016503,0.162133,0.914955,-0.027662,0,0,0,0,0,0,0,0,0,0,1,0,0,0,0
2075,'2025/06/30 16:30:53:015',91,0.474811,-0.006767,-0.009611,-0.012012,-0.027696,-0.06393,0.454674,0.034883,0.063793,0.896152,0.018049,-0.125158,0.958184,-0.013017,-0.136415,0.944172,-0.016503,0.162133,0.914955,-0.027662,0,0,0,0,0,0,0,0,0,0,1,0,0,0,0
2076,'2025/06/30 16:30:53:021',91,0.474811,-0.006767,-0.009611,-0.012012,-0.027696,-0.06393,0.454674,0.034883,0.063793,0.896152,0.018049,-0.125158,0.958184,-0.013017,-0.136415,0.944172,-0.016503,0.162133,0.914955,-0.027662,0,0,0,0,0,0,0,0,0,0,1,0,0,0,0
2077,'2025/06/30 16:30:53:025',91,0.474811,-0.006767,-0.009611,-0.012012,-0.027696,-0.06393,0.454674,0.034883,0.063793,0.896152,0.018049,-0.125158,0.958184,-0.013017,-0.136415,0.944172,-0.016503,0.162133,0.914955,-0.027662,0,0,0,0,0,0,0,0,0,0,1,0,0,0,0
2078,'2025/06/30 16:30:53:031',91,0.474811,-0.006767,-0.009611,-0.012012,-0.027696,-0.06393,0.454674,0.034883,0.063793,0.896152,0.018049,-0.125158,0.958184,-0.013017,-0.136415,0.944172,-0.016503,0.162133,0.914955,-0.027662,0,0,0,0,0,0,0,0,0,0,1,0,0,0,0
2079,'2025/06/30 16:30:53:035',91,0.474811,-0.006767,-0.009611,-0.012012,-0.027696,-0.06393,0.454674,0.034883,0.063793,0.896152,0.018049,-0.125158,0.958184,-0.013017,-0.136415,0.944172,-0.016503,0.162133,0.914955,-0.027662,0,0,0,0,0,0,0,0,0,0,1,0,0,0,0
2080,'2025/06/30 16:30:53:039',91,0.474811,-0.006767,-0.009611,-0.012012,-0.027696,-0.06393,0.454674,0.034883,0.063793,0.896152,0.018049,-0.125158,0.958184,-0.013017,-0.136415,0.944172,-0.016503,0.162133,0.914955,-0.027662,0,0,0,0,0,0,0,0,0,0,1,0,0,0,0
2081,'2025/06/30 16:30:53:044',91,0.474811,-0.006767,-0.009611,-0.012012,-0.027696,-0.06393,0.454674,0.034883,0.063793,0.896152,0.018049,-0.125158,0.958184,-0.013017,-0.136415,0.944172,-0.016503,0.162133,0.914955,-0.027662,0,0,0,0,0,0,0,0,0,0,1,0,0,0,0
2082,'2025/06/30 16:30:53:050',91,0.474811,-0.006767,-0.009611,-0.012012,-0.027696,-0.06393,0.454674,0.034883,0.063793,0.896152,0.018049,-0.125158,0.958184,-0.013017,-0.136415,0.944172,-0.016503,0.162133,0.914955,-0.027662,0,0,0,0,0,0,0,0,0,0,1,0,0,0,0
2083,'2025/06/30 16:30:53:055',91,0.474811,-0.006767,-0.009611,-0.012012,-0.027696,-0.06393,0.454674,0.034883,0.063793,0.896152,0.018049,-0.125158,0.958184,-0.013017,-0.136415,0.944172,-0.016503,0.162133,0.914955,-0.027662,0,0,0,0,0,0,0,0,0,0,1,0,0,0,0
2084,'2025/06/30 16:30:53:061',91,0.474811,-0.006767,-0.009611,-0.012012,-0.027696,-0.06393,0.454674,0.034883,0.063793,0.896152,0.018049,-0.125158,0.958184,-0.013017,-0.136415,0.944172,-0.016503,0.162133,0.914955,-0.027662,0,0,0,0,0,0,0,0,0,0,1,0,0,0,0
2085,'2025/06/30 16:30:53:066',91,0.474811,-0.006767,-0.009611,-0.012012,-0.027696,-0.06393,0.454674,0.034883,0.063793,0.896152,0.018049,-0.125158,0.958184,-0.013017,-0.136415,0.944172,-0.016503,0.162133,0.914955,-0.027662,0,0,0,0,0,0,0,0,0,0,1,0,0,0,0
2086,'2025/06/30 16:30:53:072',91,0.474811,-0.006767,-0.009611,-0.012012,-0.027696,-0.06393,0.454674,0.034883,0.063793,0.896152,0.018049,-0.125158,0.958184,-0.013017,-0.136415,0.944172,-0.016503,0.162133,0.914955,-0.027662,0,0,0,0,0,0,0,0,0,0,1,0,0,0,0
2087,'2025/06/30 16:30:53:076',91,0.474811,-0.006767,-0.009611,-0.012012,-0.027696,-0.06393,0.454674,0.034883,0.063793,0.896152,0.018049,-0.125158,0.958184,-0.013017,-0.136415,0.944172,-0.016503,0.162133,0.914955,-0.027662,0,0,0,0,0,0,0,0,0,0,1,0,0,0,0
2088,'2025/06/30 16:30:53:080',91,0.474811,-0.006767,-0.009611,-0.012012,-0.027696,-0.06393,0.454674,0.034883,0.063793,0.896152,0.018049,-0.125158,0.958184,-0.013017,-0.136415,0.944172,-0.016503,0.162133,0.914955,-0.027662,0,0,0,0,0,0,0,0,0,0,1,0,0,0,0
2089,'2025/06/30 16:30:53:086',91,0.474811,-0.006767,-0.009611,-0.012012,-0.027696,-0.06393,0.454674,0.034883,0.063793,0.896152,0.018049,-0.125158,0.958184,-0.013017,-0.136415,0.944172,-0.016503,0.162133,0.914955,-0.027662,0,0,0,0,0,0,0,0,0,0,1,0,0,0,0
2090,'2025/06/30 16:30:53:093',91,0.474811,-0.006767,-0.009611,-0.012012,-0.027696,-0.06393,0.454674,0.034883,0.063793,0.896152,0.018049,-0.125158,0.958184,-0.013017,-0.136415,0.944172,-0.016503,0.162133,0.914955,-0.027662,0,0,0,0,0,0,0,0,0,0,1,0,0,0,0
2091,'2025/06/30 16:30:53:099',91,0.474811,-0.006767,-0.009611,-0.012012,-0.027696,-0.06393,0.454674,0.034883,0.063793,0.896152,0.018049,-0.125158,0.958184,-0.013017,-0.136415,0.944172,-0.016503,0.162133,0.914955,-0.027662,0,0,0,0,0,0,0,0,0,0,1,0,0,0,0
2092,'2025/06/30 16:31:26:441',92,0.297633,0.117158,0,-0.128996,-0.225539,0.252564,0,-0.322128,0.024793,-0.004264,-0.128167,0,0,-0.008008,-0.018482,0,0.12204,-0.032315,0,0.219461,0,0,0,0,0,0,0,0,0,0,0,1,0,0,0
2093,'2025/06/30 16:31:26:446',92,0.297633,0.117158,0,-0.128996,-0.225539,0.252564,0,-0.322128,0.024793,-0.004264,-0.128167,0,0,-0.008008,-0.018482,0,0.12204,-0.032315,0,0.219461,0,0,0,0,0,0,0,0,0,0,0,1,0,0,0
2094,'2025/06/30 16:31:26:453',92,0.297633,0.117158,0,-0.128996,-0.225539,0.252564,0,-0.322128,0.024793,-0.004264,-0.128167,0,0,-0.008008,-0.018482,0,0.12204,-0.032315,0,0.219461,0,0,0,0,0,0,0,0,0,0,0,1,0,0,0
2095,'2025/06/30 16:31:26:458',92,0.297633,0.117158,0,-0.128996,-0.225539,0.252564,0,-0.322128,0.024793,-0.004264,-0.128167,0,0,-0.008008,-0.018482,0,0.12204,-0.032315,0,0.219461,0,0,0,0,0,0,0,0,0,0,0,1,0,0,0
2096,'2025/06/30 16:31:26:463',92,0.297633,0.117158,0,-0.128996,-0.225539,0.252564,0,-0.322128,0.024793,-0.004264,-0.128167,0,0,-0.008008,-0.018482,0,0.12204,-0.032315,0,0.219461,0,0,0,0,0,0,0,0,0,0,0,1,0,0,0
2097,'2025/06/30 16:31:26:469',92,0.297633,0.117158,0,-0.128996,-0.225539,0.252564,0,-0.322128,0.024793,-0.004264,-0.128167,0,0,-0.008008,-0.018482,0,0.12204,-0.032315,0,0.219461,0,0,0,0,0,0,0,0,0,0,0,1,0,0,0
2098,'2025/06/30 16:31:26:473',92,0.297633,0.117158,0,-0.128996,-0.225539,0.252564,0,-0.322128,0.024793,-0.004264,-0.128167,0,0,-0.008008,-0.018482,0,0.12204,-0.032315,0,0.219461,0,0,0,0,0,0,0,0,0,0,0,1,0,0,0
2099,'2025/06/30 16:31:26:478',92,0.297633,0.117158,0,-0.128996,-0.225539,0.252564,0,-0.322128,0.024793,-0.004264,-0.128167,0,0,-0.008008,-0.018482,0,0.12204,-0.032315,0,0.219461,0,0,0,0,0,0,0,0,0,0,0,1,0,0,0
2100,'2025/06/30 16:31:26:485',92,0.297633,0.117158,0,-0.128996,-0.225539,0.252564,0,-0.322128,0.024793,-0.004264,-0.128167,0,0,-0.008008,-0.018482,0,0.12204,-0.032315,0,0.219461,0,0,0,0,0,0,0,0,0,0,0,1,0,0,0
2101,'2025/06/30 16:31:26:490',92,0.297633,0.117158,0,-0.128996,-0.225539,0.252564,0,-0.322128,0.024793,-0.004264,-0.128167,0,0,-0.008008,-0.018482,0,0.12204,-0.032315,0,0.219461,0,0,0,0,0,0,0,0,0,0,0,1,0,0,0
2102,'2025/06/30 16:31:26:497',92,0.297633,0.117158,0,-0.128996,-0.225539,0.252564,0,-0.322128,0.024793,-0.004264,-0.128167,0,0,-0.008008,-0.018482,0,0.12204,-0.032315,0,0.219461,0,0,0,0,0,0,0,0,0,0,0,1,0,0,0
2103,'2025/06/30 16:31:26:503',92,0.297633,0.117158,0,-0.128996,-0.225539,0.252564,0,-0.322128,0.024793,-0.004264,-0.128167,0,0,-0.008008,-0.018482,0,0.12204,-0.032315,0,0.219461,0,0,0,0,0,0,0,0,0,0,0,1,0,0,0
2104,'2025/06/30 16:31:26:509',92,0.297633,0.117158,0,-0.128996,-0.225539,0.252564,0,-0.322128,0.024793,-0.004264,-0.128167,0,0,-0.008008,-0.018482,0,0.12204,-0.032315,0,0.219461,0,0,0,0,0,0,0,0,0,0,0,1,0,0,0
2105,'2025/06/30 16:31:26:514',92,0.297633,0.117158,0,-0.128996,-0.225539,0.252564,0,-0.322128,0.024793,-0.004264,-0.128167,0,0,-0.008008,-0.018482,0,0.12204,-0.032315,0,0.219461,0,0,0,0,0,0,0,0,0,0,0,1,0,0,0
2106,'2025/06/30 16:31:26:519',92,0.297633,0.117158,0,-0.128996,-0.225539,0.252564,0,-0.322128,0.024793,-0.004264,-0.128167,0,0,-0.008008,-0.018482,0,0.12204,-0.032315,0,0.219461,0,0,0,0,0,0,0,0,0,0,0,1,0,0,0
2107,'2025/06/30 16:31:26:524',92,0.297633,0.117158,0,-0.128996,-0.225539,0.252564,0,-0.322128,0.024793,-0.004264,-0.128167,0,0,-0.008008,-0.018482,0,0.12204,-0.032315,0,0.219461,0,0,0,0,0,0,0,0,0,0,0,1,0,0,0
2108,'2025/06/30 16:31:26:530',92,0.297633,0.117158,0,-0.128996,-0.225539,0.252564,0,-0.322128,0.024793,-0.004264,-0.128167,0,0,-0.008008,-0.018482,0,0.12204,-0.032315,0,0.219461,0,0,0,0,0,0,0,0,0,0,0,1,0,0,0
2109,'2025/06/30 16:31:26:534',92,0.297633,0.117158,0,-0.128996,-0.225539,0.252564,0,-0.322128,0.024793,-0.004264,-0.128167,0,0,-0.008008,-0.018482,0,0.12204,-0.032315,0,0.219461,0,0,0,0,0,0,0,0,0,0,0,1,0,0,0
2110,'2025/06/30 16:31:26:539',92,0.297633,0.117158,0,-0.128996,-0.225539,0.252564,0,-0.322128,0.024793,-0.004264,-0.128167,0,0,-0.008008,-0.018482,0,0.12204,-0.032315,0,0.219461,0,0,0,0,0,0,0,0,0,0,0,1,0,0,0
2111,'2025/06/30 16:31:26:542',92,0.297633,0.117158,0,-0.128996,-0.225539,0.252564,0,-0.322128,0.024793,-0.004264,-0.128167,0,0,-0.008008,-0.018482,0,0.12204,-0.032315,0,0.219461,0,0,0,0,0,0,0,0,0,0,0,1,0,0,0
2112,'2025/06/30 16:31:26:547',92,0.297633,0.117158,0,-0.128996,-0.225539,0.252564,0,-0.322128,0.024793,-0.004264,-0.128167,0,0,-0.008008,-0.018482,0,0.12204,-0.032315,0,0.219461,0,0,0,0,0,0,0,0,0,0,0,1,0,0,0
2113,'2025/06/30 16:31:26:553',92,0.297633,0.117158,0,-0.128996,-0.225539,0.252564,0,-0.322128,0.024793,-0.004264,-0.128167,0,0,-0.008008,-0.018482,0,0.12204,-0.032315,0,0.219461,0,0,0,0,0,0,0,0,0,0,0,1,0,0,0
2114,'2025/06/30 16:31:26:559',92,0.297633,0.117158,0,-0.128996,-0.225539,0.252564,0,-0.322128,0.024793,-0.004264,-0.128167,0,0,-0.008008,-0.018482,0,0.12204,-0.032315,0,0.219461,0,0,0,0,0,0,0,0,0,0,0,1,0,0,0
2115,'2025/06/30 16:31:26:562',92,0.297633,0.117158,0,-0.128996,-0.225539,0.252564,0,-0.322128,0.024793,-0.004264,-0.128167,0,0,-0.008008,-0.018482,0,0.12204,-0.032315,0,0.219461,0,0,0,0,0,0,0,0,0,0,0,1,0,0,0
2116,'2025/06/30 16:31:26:567',92,0.297633,0.117158,0,-0.128996,-0.225539,0.252564,0,-0.322128,0.024793,-0.004264,-0.128167,0,0,-0.008008,-0.018482,0,0.12204,-0.032315,0,0.219461,0,0,0,0,0,0,0,0,0,0,0,1,0,0,0
2117,'2025/06/30 16:31:26:573',92,0.297633,0.117158,0,-0.128996,-0.225539,0.252564,0,-0.322128,0.024793,-0.004264,-0.128167,0,0,-0.008008,-0.018482,0,0.12204,-0.032315,0,0.219461,0,0,0,0,0,0,0,0,0,0,0,1,0,0,0
2118,'2025/06/30 16:31:26:578',92,0.297633,0.117158,0,-0.128996,-0.225539,0.252564,0,-0.322128,0.024793,-0.004264,-0.128167,0,0,-0.008008,-0.018482,0,0.12204,-0.032315,0,0.219461,0,0,0,0,0,0,0,0,0,0,0,1,0,0,0
2119,'2025/06/30 16:31:26:583',92,0.297633,0.117158,0,-0.128996,-0.225539,0.252564,0,-0.322128,0.024793,-0.004264,-0.128167,0,0,-0.008008,-0.018482,0,0.12204,-0.032315,0,0.219461,0,0,0,0,0,0,0,0,0,0,0,1,0,0,0
2120,'2025/06/30 16:31:26:587',92,0.297633,0.117158,0,-0.128996,-0.225539,0.252564,0,-0.322128,0.024793,-0.004264,-0.128167,0,0,-0.008008,-0.018482,0,0.12204,-0.032315,0,0.219461,0,0,0,0,0,0,0,0,0,0,0,1,0,0,0
2121,'2025/06/30 16:31:34:390',93,0.321917,0.165115,0,-0.128996,-0.268311,0.256641,0,-0.346558,0.031476,-0.004264,-0.176407,0,0,-0.008008,-0.018482,0,0.12204,-0.038444,0,0.262648,0,0,0,0,0,0,0,0,0,0,0,1,0,0,0
2122,'2025/06/30 16:31:34:395',93,0.321917,0.165115,0,-0.128996,-0.268311,0.256641,0,-0.346558,0.031476,-0.004264,-0.176407,0,0,-0.008008,-0.018482,0,0.12204,-0.038444,0,0.262648,0,0,0,0,0,0,0,0,0,0,0,1,0,0,0
2123,'2025/06/30 16:31:34:399',93,0.321917,0.165115,0,-0.128996,-0.268311,0.256641,0,-0.346558,0.031476,-0.004264,-0.176407,0,0,-0.008008,-0.018482,0,0.12204,-0.038444,0,0.262648,0,0,0,0,0,0,0,0,0,0,0,1,0,0,0
2124,'2025/06/30 16:31:34:404',93,0.321917,0.165115,0,-0.128996,-0.268311,0.256641,0,-0.346558,0.031476,-0.004264,-0.176407,0,0,-0.008008,-0.018482,0,0.12204,-0.038444,0,0.262648,0,0,0,0,0,0,0,0,0,0,0,1,0,0,0
2125,'2025/06/30 16:31:34:410',93,0.321917,0.165115,0,-0.128996,-0.268311,0.256641,0,-0.346558,0.031476,-0.004264,-0.176407,0,0,-0.008008,-0.018482,0,0.12204,-0.038444,0,0.262648,0,0,0,0,0,0,0,0,0,0,0,1,0,0,0
2126,'2025/06/30 16:31:34:415',93,0.321917,0.165115,0,-0.128996,-0.268311,0.256641,0,-0.346558,0.031476,-0.004264,-0.176407,0,0,-0.008008,-0.018482,0,0.12204,-0.038444,0,0.262648,0,0,0,0,0,0,0,0,0,0,0,1,0,0,0
2127,'2025/06/30 16:31:34:421',93,0.321917,0.165115,0,-0.128996,-0.268311,0.256641,0,-0.346558,0.031476,-0.004264,-0.176407,0,0,-0.008008,-0.018482,0,0.12204,-0.038444,0,0.262648,0,0,0,0,0,0,0,0,0,0,0,1,0,0,0
2128,'2025/06/30 16:31:34:427',93,0.321917,0.165115,0,-0.128996,-0.268311,0.256641,0,-0.346558,0.031476,-0.004264,-0.176407,0,0,-0.008008,-0.018482,0,0.12204,-0.038444,0,0.262648,0,0,0,0,0,0,0,0,0,0,0,1,0,0,0
2129,'2025/06/30 16:31:34:432',93,0.321917,0.165115,0,-0.128996,-0.268311,0.256641,0,-0.346558,0.031476,-0.004264,-0.176407,0,0,-0.008008,-0.018482,0,0.12204,-0.038444,0,0.262648,0,0,0,0,0,0,0,0,0,0,0,1,0,0,0
2130,'2025/06/30 16:31:34:438',93,0.321917,0.165115,0,-0.128996,-0.268311,0.256641,0,-0.346558,0.031476,-0.004264,-0.176407,0,0,-0.008008,-0.018482,0,0.12204,-0.038444,0,0.262648,0,0,0,0,0,0,0,0,0,0,0,1,0,0,0
2131,'2025/06/30 16:31:34:443',93,0.321917,0.165115,0,-0.128996,-0.268311,0.256641,0,-0.346558,0.031476,-0.004264,-0.176407,0,0,-0.008008,-0.018482,0,0.12204,-0.038444,0,0.262648,0,0,0,0,0,0,0,0,0,0,0,1,0,0,0
2132,'2025/06/30 16:31:34:448',93,0.321917,0.165115,0,-0.128996,-0.268311,0.256641,0,-0.346558,0.031476,-0.004264,-0.176407,0,0,-0.008008,-0.018482,0,0.12204,-0.038444,0,0.262648,0,0,0,0,0,0,0,0,0,0,0,1,0,0,0
2133,'2025/06/30 16:31:34:453',93,0.321917,0.165115,0,-0.128996,-0.268311,0.256641,0,-0.346558,0.031476,-0.004264,-0.176407,0,0,-0.008008,-0.018482,0,0.12204,-0.038444,0,0.262648,0,0,0,0,0,0,0,0,0,0,0,1,0,0,0
2134,'2025/06/30 16:31:34:459',93,0.321917,0.165115,0,-0.128996,-0.268311,0.256641,0,-0.346558,0.031476,-0.004264,-0.176407,0,0,-0.008008,-0.018482,0,0.12204,-0.038444,0,0.262648,0,0,0,0,0,0,0,0,0,0,0,1,0,0,0
2135,'2025/06/30 16:31:34:463',93,0.321917,0.165115,0,-0.128996,-0.268311,0.256641,0,-0.346558,0.031476,-0.004264,-0.176407,0,0,-0.008008,-0.018482,0,0.12204,-0.038444,0,0.262648,0,0,0,0,0,0,0,0,0,0,0,1,0,0,0
2136,'2025/06/30 16:31:34:468',93,0.321917,0.165115,0,-0.128996,-0.268311,0.256641,0,-0.346558,0.031476,-0.004264,-0.176407,0,0,-0.008008,-0.018482,0,0.12204,-0.038444,0,0.262648,0,0,0,0,0,0,0,0,0,0,0,1,0,0,0
2137,'2025/06/30 16:31:34:474',93,0.321917,0.165115,0,-0.128996,-0.268311,0.256641,0,-0.346558,0.031476,-0.004264,-0.176407,0,0,-0.008008,-0.018482,0,0.12204,-0.038444,0,0.262648,0,0,0,0,0,0,0,0,0,0,0,1,0,0,0
2138,'2025/06/30 16:31:34:480',93,0.321917,0.165115,0,-0.128996,-0.268311,0.256641,0,-0.346558,0.031476,-0.004264,-0.176407,0,0,-0.008008,-0.018482,0,0.12204,-0.038444,0,0.262648,0,0,0,0,0,0,0,0,0,0,0,1,0,0,0
2139,'2025/06/30 16:31:34:486',93,0.321917,0.165115,0,-0.128996,-0.268311,0.256641,0,-0.346558,0.031476,-0.004264,-0.176407,0,0,-0.008008,-0.018482,0,0.12204,-0.038444,0,0.262648,0,0,0,0,0,0,0,0,0,0,0,1,0,0,0
2140,'2025/06/30 16:31:34:492',93,0.321917,0.165115,0,-0.128996,-0.268311,0.256641,0,-0.346558,0.031476,-0.004264,-0.176407,0,0,-0.008008,-0.018482,0,0.12204,-0.038444,0,0.262648,0,0,0,0,0,0,0,0,0,0,0,1,0,0,0
2141,'2025/06/30 16:31:34:499',93,0.321917,0.165115,0,-0.128996,-0.268311,0.256641,0,-0.346558,0.031476,-0.004264,-0.176407,0,0,-0.008008,-0.018482,0,0.12204,-0.038444,0,0.262648,0,0,0,0,0,0,0,0,0,0,0,1,0,0,0
2142,'2025/06/30 16:31:34:504',93,0.321917,0.165115,0,-0.128996,-0.268311,0.256641,0,-0.346558,0.031476,-0.004264,-0.176407,0,0,-0.008008,-0.018482,0,0.12204,-0.038444,0,0.262648,0,0,0,0,0,0,0,0,0,0,0,1,0,0,0
2143,'2025/06/30 16:31:34:510',93,0.321917,0.165115,0,-0.128996,-0.268311,0.256641,0,-0.346558,0.031476,-0.004264,-0.176407,0,0,-0.008008,-0.018482,0,0.12204,-0.038444,0,0.262648,0,0,0,0,0,0,0,0,0,0,0,1,0,0,0
2144,'2025/06/30 16:31:34:517',93,0.321917,0.165115,0,-0.128996,-0.268311,0.256641,0,-0.346558,0.031476,-0.004264,-0.176407,0,0,-0.008008,-0.018482,0,0.12204,-0.038444,0,0.262648,0,0,0,0,0,0,0,0,0,0,0,1,0,0,0
2145,'2025/06/30 16:31:34:521',93,0.321917,0.165115,0,-0.128996,-0.268311,0.256641,0,-0.346558,0.031476,-0.004264,-0.176407,0,0,-0.008008,-0.018482,0,0.12204,-0.038444,0,0.262648,0,0,0,0,0,0,0,0,0,0,0,1,0,0,0
2146,'2025/06/30 16:31:34:528',93,0.321917,0.165115,0,-0.128996,-0.268311,0.256641,0,-0.346558,0.031476,-0.004264,-0.176407,0,0,-0.008008,-0.018482,0,0.12204,-0.038444,0,0.262648,0,0,0,0,0,0,0,0,0,0,0,1,0,0,0
2147,'2025/06/30 16:31:34:533',93,0.321917,0.165115,0,-0.128996,-0.268311,0.256641,0,-0.346558,0.031476,-0.004264,-0.176407,0,0,-0.008008,-0.018482,0,0.12204,-0.038444,0,0.262648,0,0,0,0,0,0,0,0,0,0,0,1,0,0,0
2148,'2025/06/30 16:31:42:256',94,0.27459,0.084879,0,-0.086359,-0.185924,0.22904,0,-0.297578,0.019365,-0.004264,-0.095619,0,0,-0.008008,-0.012373,0,0.07904,-0.026639,0,0.179476,0,0,0,0,0,0,0,0,0,0,0,1,0,0,0
2149,'2025/06/30 16:31:42:260',94,0.27459,0.084879,0,-0.086359,-0.185924,0.22904,0,-0.297578,0.019365,-0.004264,-0.095619,0,0,-0.008008,-0.012373,0,0.07904,-0.026639,0,0.179476,0,0,0,0,0,0,0,0,0,0,0,1,0,0,0
2150,'2025/06/30 16:31:42:265',94,0.27459,0.084879,0,-0.086359,-0.185924,0.22904,0,-0.297578,0.019365,-0.004264,-0.095619,0,0,-0.008008,-0.012373,0,0.07904,-0.026639,0,0.179476,0,0,0,0,0,0,0,0,0,0,0,1,0,0,0
2151,'2025/06/30 16:31:42:270',94,0.27459,0.084879,0,-0.086359,-0.185924,0.22904,0,-0.297578,0.019365,-0.004264,-0.095619,0,0,-0.008008,-0.012373,0,0.07904,-0.026639,0,0.179476,0,0,0,0,0,0,0,0,0,0,0,1,0,0,0
2152,'2025/06/30 16:31:42:275',94,0.27459,0.084879,0,-0.086359,-0.185924,0.22904,0,-0.297578,0.019365,-0.004264,-0.095619,0,0,-0.008008,-0.012373,0,0.07904,-0.026639,0,0.179476,0,0,0,0,0,0,0,0,0,0,0,1,0,0,0
2153,'2025/06/30 16:31:42:279',94,0.27459,0.084879,0,-0.086359,-0.185924,0.22904,0,-0.297578,0.019365,-0.004264,-0.095619,0,0,-0.008008,-0.012373,0,0.07904,-0.026639,0,0.179476,0,0,0,0,0,0,0,0,0,0,0,1,0,0,0
2154,'2025/06/30 16:31:42:284',94,0.27459,0.084879,0,-0.086359,-0.185924,0.22904,0,-0.297578,0.019365,-0.004264,-0.095619,0,0,-0.008008,-0.012373,0,0.07904,-0.026639,0,0.179476,0,0,0,0,0,0,0,0,0,0,0,1,0,0,0
2155,'2025/06/30 16:31:42:290',94,0.27459,0.084879,0,-0.086359,-0.185924,0.22904,0,-0.297578,0.019365,-0.004264,-0.095619,0,0,-0.008008,-0.012373,0,0.07904,-0.026639,0,0.179476,0,0,0,0,0,0,0,0,0,0,0,1,0,0,0
2156,'2025/06/30 16:31:42:295',94,0.27459,0.084879,0,-0.086359,-0.185924,0.22904,0,-0.297578,0.019365,-0.004264,-0.095619,0,0,-0.008008,-0.012373,0,0.07904,-0.026639,0,0.179476,0,0,0,0,0,0,0,0,0,0,0,1,0,0,0
2157,'2025/06/30 16:31:42:299',94,0.27459,0.084879,0,-0.086359,-0.185924,0.22904,0,-0.297578,0.019365,-0.004264,-0.095619,0,0,-0.008008,-0.012373,0,0.07904,-0.026639,0,0.179476,0,0,0,0,0,0,0,0,0,0,0,1,0,0,0
2158,'2025/06/30 16:31:42:304',94,0.27459,0.084879,0,-0.086359,-0.185924,0.22904,0,-0.297578,0.019365,-0.004264,-0.095619,0,0,-0.008008,-0.012373,0,0.07904,-0.026639,0,0.179476,0,0,0,0,0,0,0,0,0,0,0,1,0,0,0
2159,'2025/06/30 16:31:42:309',94,0.27459,0.084879,0,-0.086359,-0.185924,0.22904,0,-0.297578,0.019365,-0.004264,-0.095619,0,0,-0.008008,-0.012373,0,0.07904,-0.026639,0,0.179476,0,0,0,0,0,0,0,0,0,0,0,1,0,0,0
2160,'2025/06/30 16:31:42:314',94,0.27459,0.084879,0,-0.086359,-0.185924,0.22904,0,-0.297578,0.019365,-0.004264,-0.095619,0,0,-0.008008,-0.012373,0,0.07904,-0.026639,0,0.179476,0,0,0,0,0,0,0,0,0,0,0,1,0,0,0
2161,'2025/06/30 16:31:42:319',94,0.27459,0.084879,0,-0.086359,-0.185924,0.22904,0,-0.297578,0.019365,-0.004264,-0.095619,0,0,-0.008008,-0.012373,0,0.07904,-0.026639,0,0.179476,0,0,0,0,0,0,0,0,0,0,0,1,0,0,0
2162,'2025/06/30 16:31:42:326',94,0.27459,0.084879,0,-0.086359,-0.185924,0.22904,0,-0.297578,0.019365,-0.004264,-0.095619,0,0,-0.008008,-0.012373,0,0.07904,-0.026639,0,0.179476,0,0,0,0,0,0,0,0,0,0,0,1,0,0,0
2163,'2025/06/30 16:31:42:331',94,0.27459,0.084879,0,-0.086359,-0.185924,0.22904,0,-0.297578,0.019365,-0.004264,-0.095619,0,0,-0.008008,-0.012373,0,0.07904,-0.026639,0,0.179476,0,0,0,0,0,0,0,0,0,0,0,1,0,0,0
2164,'2025/06/30 16:31:42:338',94,0.27459,0.084879,0,-0.086359,-0.185924,0.22904,0,-0.297578,0.019365,-0.004264,-0.095619,0,0,-0.008008,-0.012373,0,0.07904,-0.026639,0,0.179476,0,0,0,0,0,0,0,0,0,0,0,1,0,0,0
2165,'2025/06/30 16:31:42:343',94,0.27459,0.084879,0,-0.086359,-0.185924,0.22904,0,-0.297578,0.019365,-0.004264,-0.095619,0,0,-0.008008,-0.012373,0,0.07904,-0.026639,0,0.179476,0,0,0,0,0,0,0,0,0,0,0,1,0,0,0
2166,'2025/06/30 16:31:42:348',94,0.27459,0.084879,0,-0.086359,-0.185924,0.22904,0,-0.297578,0.019365,-0.004264,-0.095619,0,0,-0.008008,-0.012373,0,0.07904,-0.026639,0,0.179476,0,0,0,0,0,0,0,0,0,0,0,1,0,0,0
2167,'2025/06/30 16:31:42:353',94,0.27459,0.084879,0,-0.086359,-0.185924,0.22904,0,-0.297578,0.019365,-0.004264,-0.095619,0,0,-0.008008,-0.012373,0,0.07904,-0.026639,0,0.179476,0,0,0,0,0,0,0,0,0,0,0,1,0,0,0
2168,'2025/06/30 16:31:42:359',94,0.27459,0.084879,0,-0.086359,-0.185924,0.22904,0,-0.297578,0.019365,-0.004264,-0.095619,0,0,-0.008008,-0.012373,0,0.07904,-0.026639,0,0.179476,0,0,0,0,0,0,0,0,0,0,0,1,0,0,0
2169,'2025/06/30 16:31:42:364',94,0.27459,0.084879,0,-0.086359,-0.185924,0.22904,0,-0.297578,0.019365,-0.004264,-0.095619,0,0,-0.008008,-0.012373,0,0.07904,-0.026639,0,0.179476,0,0,0,0,0,0,0,0,0,0,0,1,0,0,0
2170,'2025/06/30 16:31:42:370',94,0.27459,0.084879,0,-0.086359,-0.185924,0.22904,0,-0.297578,0.019365,-0.004264,-0.095619,0,0,-0.008008,-0.012373,0,0.07904,-0.026639,0,0.179476,0,0,0,0,0,0,0,0,0,0,0,1,0,0,0
2171,'2025/06/30 16:31:42:375',94,0.27459,0.084879,0,-0.086359,-0.185924,0.22904,0,-0.297578,0.019365,-0.004264,-0.095619,0,0,-0.008008,-0.012373,0,0.07904,-0.026639,0,0.179476,0,0,0,0,0,0,0,0,0,0,0,1,0,0,0
2172,'2025/06/30 16:31:42:380',94,0.27459,0.084879,0,-0.086359,-0.185924,0.22904,0,-0.297578,0.019365,-0.004264,-0.095619,0,0,-0.008008,-0.012373,0,0.07904,-0.026639,0,0.179476,0,0,0,0,0,0,0,0,0,0,0,1,0,0,0
2173,'2025/06/30 16:31:42:385',94,0.27459,0.084879,0,-0.086359,-0.185924,0.22904,0,-0.297578,0.019365,-0.004264,-0.095619,0,0,-0.008008,-0.012373,0,0.07904,-0.026639,0,0.179476,0,0,0,0,0,0,0,0,0,0,0,1,0,0,0
2174,'2025/06/30 16:31:42:390',94,0.27459,0.084879,0,-0.086359,-0.185924,0.22904,0,-0.297578,0.019365,-0.004264,-0.095619,0,0,-0.008008,-0.012373,0,0.07904,-0.026639,0,0.179476,0,0,0,0,0,0,0,0,0,0,0,1,0,0,0
2175,'2025/06/30 16:31:42:396',94,0.27459,0.084879,0,-0.086359,-0.185924,0.22904,0,-0.297578,0.019365,-0.004264,-0.095619,0,0,-0.008008,-0.012373,0,0.07904,-0.026639,0,0.179476,0,0,0,0,0,0,0,0,0,0,0,1,0,0,0
2176,'2025/06/30 16:31:42:401',94,0.27459,0.084879,0,-0.086359,-0.185924,0.22904,0,-0.297578,0.019365,-0.004264,-0.095619,0,0,-0.008008,-0.012373,0,0.07904,-0.026639,0,0.179476,0,0,0,0,0,0,0,0,0,0,0,1,0,0,0
2177,'2025/06/30 16:31:47:178',95,0.377019,0.084879,0,-0.086359,-0.185924,0.252776,0,-0.401061,0.019365,-0.004264,-0.095619,0,0,-0.008008,-0.012373,0,0.07904,-0.026639,0,0.179476,0,0,0,0,0,0,0,0,0,0,0,1,0,0,0
2178,'2025/06/30 16:31:47:182',95,0.377019,0.084879,0,-0.086359,-0.185924,0.252776,0,-0.401061,0.019365,-0.004264,-0.095619,0,0,-0.008008,-0.012373,0,0.07904,-0.026639,0,0.179476,0,0,0,0,0,0,0,0,0,0,0,1,0,0,0
2179,'2025/06/30 16:31:47:187',95,0.377019,0.084879,0,-0.086359,-0.185924,0.252776,0,-0.401061,0.019365,-0.004264,-0.095619,0,0,-0.008008,-0.012373,0,0.07904,-0.026639,0,0.179476,0,0,0,0,0,0,0,0,0,0,0,1,0,0,0
2180,'2025/06/30 16:31:47:193',95,0.377019,0.084879,0,-0.086359,-0.185924,0.252776,0,-0.401061,0.019365,-0.004264,-0.095619,0,0,-0.008008,-0.012373,0,0.07904,-0.026639,0,0.179476,0,0,0,0,0,0,0,0,0,0,0,1,0,0,0
2181,'2025/06/30 16:31:47:197',95,0.377019,0.084879,0,-0.086359,-0.185924,0.252776,0,-0.401061,0.019365,-0.004264,-0.095619,0,0,-0.008008,-0.012373,0,0.07904,-0.026639,0,0.179476,0,0,0,0,0,0,0,0,0,0,0,1,0,0,0
2182,'2025/06/30 16:31:47:202',95,0.377019,0.084879,0,-0.086359,-0.185924,0.252776,0,-0.401061,0.019365,-0.004264,-0.095619,0,0,-0.008008,-0.012373,0,0.07904,-0.026639,0,0.179476,0,0,0,0,0,0,0,0,0,0,0,1,0,0,0
2183,'2025/06/30 16:31:47:207',95,0.377019,0.084879,0,-0.086359,-0.185924,0.252776,0,-0.401061,0.019365,-0.004264,-0.095619,0,0,-0.008008,-0.012373,0,0.07904,-0.026639,0,0.179476,0,0,0,0,0,0,0,0,0,0,0,1,0,0,0
2184,'2025/06/30 16:31:47:212',95,0.377019,0.084879,0,-0.086359,-0.185924,0.252776,0,-0.401061,0.019365,-0.004264,-0.095619,0,0,-0.008008,-0.012373,0,0.07904,-0.026639,0,0.179476,0,0,0,0,0,0,0,0,0,0,0,1,0,0,0
2185,'2025/06/30 16:31:47:219',95,0.377019,0.084879,0,-0.086359,-0.185924,0.252776,0,-0.401061,0.019365,-0.004264,-0.095619,0,0,-0.008008,-0.012373,0,0.07904,-0.026639,0,0.179476,0,0,0,0,0,0,0,0,0,0,0,1,0,0,0
2186,'2025/06/30 16:31:47:224',95,0.377019,0.084879,0,-0.086359,-0.185924,0.252776,0,-0.401061,0.019365,-0.004264,-0.095619,0,0,-0.008008,-0.012373,0,0.07904,-0.026639,0,0.179476,0,0,0,0,0,0,0,0,0,0,0,1,0,0,0
2187,'2025/06/30 16:31:47:230',95,0.377019,0.084879,0,-0.086359,-0.185924,0.252776,0,-0.401061,0.019365,-0.004264,-0.095619,0,0,-0.008008,-0.012373,0,0.07904,-0.026639,0,0.179476,0,0,0,0,0,0,0,0,0,0,0,1,0,0,0
2188,'2025/06/30 16:31:47:235',95,0.377019,0.084879,0,-0.086359,-0.185924,0.252776,0,-0.401061,0.019365,-0.004264,-0.095619,0,0,-0.008008,-0.012373,0,0.07904,-0.026639,0,0.179476,0,0,0,0,0,0,0,0,0,0,0,1,0,0,0
2189,'2025/06/30 16:31:47:240',95,0.377019,0.084879,0,-0.086359,-0.185924,0.252776,0,-0.401061,0.019365,-0.004264,-0.095619,0,0,-0.008008,-0.012373,0,0.07904,-0.026639,0,0.179476,0,0,0,0,0,0,0,0,0,0,0,1,0,0,0
2190,'2025/06/30 16:31:47:246',95,0.377019,0.084879,0,-0.086359,-0.185924,0.252776,0,-0.401061,0.019365,-0.004264,-0.095619,0,0,-0.008008,-0.012373,0,0.07904,-0.026639,0,0.179476,0,0,0,0,0,0,0,0,0,0,0,1,0,0,0
2191,'2025/06/30 16:31:47:251',95,0.377019,0.084879,0,-0.086359,-0.185924,0.252776,0,-0.401061,0.019365,-0.004264,-0.095619,0,0,-0.008008,-0.012373,0,0.07904,-0.026639,0,0.179476,0,0,0,0,0,0,0,0,0,0,0,1,0,0,0
2192,'2025/06/30 16:31:47:256',95,0.377019,0.084879,0,-0.086359,-0.185924,0.252776,0,-0.401061,0.019365,-0.004264,-0.095619,0,0,-0.008008,-0.012373,0,0.07904,-0.026639,0,0.179476,0,0,0,0,0,0,0,0,0,0,0,1,0,0,0
2193,'2025/06/30 16:31:47:260',95,0.377019,0.084879,0,-0.086359,-0.185924,0.252776,0,-0.401061,0.019365,-0.004264,-0.095619,0,0,-0.008008,-0.012373,0,0.07904,-0.026639,0,0.179476,0,0,0,0,0,0,0,0,0,0,0,1,0,0,0
2194,'2025/06/30 16:31:47:266',95,0.377019,0.084879,0,-0.086359,-0.185924,0.252776,0,-0.401061,0.019365,-0.004264,-0.095619,0,0,-0.008008,-0.012373,0,0.07904,-0.026639,0,0.179476,0,0,0,0,0,0,0,0,0,0,0,1,0,0,0
2195,'2025/06/30 16:31:47:272',95,0.377019,0.084879,0,-0.086359,-0.185924,0.252776,0,-0.401061,0.019365,-0.004264,-0.095619,0,0,-0.008008,-0.012373,0,0.07904,-0.026639,0,0.179476,0,0,0,0,0,0,0,0,0,0,0,1,0,0,0
2196,'2025/06/30 16:31:47:278',95,0.377019,0.084879,0,-0.086359,-0.185924,0.252776,0,-0.401061,0.019365,-0.004264,-0.095619,0,0,-0.008008,-0.012373,0,0.07904,-0.026639,0,0.179476,0,0,0,0,0,0,0,0,0,0,0,1,0,0,0
2197,'2025/06/30 16:31:47:285',95,0.377019,0.084879,0,-0.086359,-0.185924,0.252776,0,-0.401061,0.019365,-0.004264,-0.095619,0,0,-0.008008,-0.012373,0,0.07904,-0.026639,0,0.179476,0,0,0,0,0,0,0,0,0,0,0,1,0,0,0
2198,'2025/06/30 16:31:47:291',95,0.377019,0.084879,0,-0.086359,-0.185924,0.252776,0,-0.401061,0.019365,-0.004264,-0.095619,0,0,-0.008008,-0.012373,0,0.07904,-0.026639,0,0.179476,0,0,0,0,0,0,0,0,0,0,0,1,0,0,0
2199,'2025/06/30 16:31:47:297',95,0.377019,0.084879,0,-0.086359,-0.185924,0.252776,0,-0.401061,0.019365,-0.004264,-0.095619,0,0,-0.008008,-0.012373,0,0.07904,-0.026639,0,0.179476,0,0,0,0,0,0,0,0,0,0,0,1,0,0,0
2200,'2025/06/30 16:31:47:304',95,0.377019,0.084879,0,-0.086359,-0.185924,0.252776,0,-0.401061,0.019365,-0.004264,-0.095619,0,0,-0.008008,-0.012373,0,0.07904,-0.026639,0,0.179476,0,0,0,0,0,0,0,0,0,0,0,1,0,0,0
2201,'2025/06/30 16:31:47:310',95,0.377019,0.084879,0,-0.086359,-0.185924,0.252776,0,-0.401061,0.019365,-0.004264,-0.095619,0,0,-0.008008,-0.012373,0,0.07904,-0.026639,0,0.179476,0,0,0,0,0,0,0,0,0,0,0,1,0,0,0
2202,'2025/06/30 16:31:47:317',95,0.377019,0.084879,0,-0.086359,-0.185924,0.252776,0,-0.401061,0.019365,-0.004264,-0.095619,0,0,-0.008008,-0.012373,0,0.07904,-0.026639,0,0.179476,0,0,0,0,0,0,0,0,0,0,0,1,0,0,0
2203,'2025/06/30 16:31:47:322',95,0.377019,0.084879,0,-0.086359,-0.185924,0.252776,0,-0.401061,0.019365,-0.004264,-0.095619,0,0,-0.008008,-0.012373,0,0.07904,-0.026639,0,0.179476,0,0,0,0,0,0,0,0,0,0,0,1,0,0,0
2204,'2025/06/30 16:32:36:341',96,0.315166,-0.009313,-0.010889,-0.011038,-0.014299,0.110652,0.232283,0.044696,0.057074,0.340108,0.008101,-0.044896,0.391701,-0.006147,-0.061533,0.358769,-0.008515,-0.033808,0.39544,-0.013368,0,0,0,0,0,0,0,0,0,0,0,0,1,0,0
2205,'2025/06/30 16:32:36:346',96,0.315166,-0.009313,-0.010889,-0.011038,-0.014299,0.110652,0.232283,0.044696,0.057074,0.340108,0.008101,-0.044896,0.391701,-0.006147,-0.061533,0.358769,-0.008515,-0.033808,0.39544,-0.013368,0,0,0,0,0,0,0,0,0,0,0,0,1,0,0
2206,'2025/06/30 16:32:36:350',96,0.315166,-0.009313,-0.010889,-0.011038,-0.014299,0.110652,0.232283,0.044696,0.057074,0.340108,0.008101,-0.044896,0.391701,-0.006147,-0.061533,0.358769,-0.008515,-0.033808,0.39544,-0.013368,0,0,0,0,0,0,0,0,0,0,0,0,1,0,0
2207,'2025/06/30 16:32:36:354',96,0.315166,-0.009313,-0.010889,-0.011038,-0.014299,0.110652,0.232283,0.044696,0.057074,0.340108,0.008101,-0.044896,0.391701,-0.006147,-0.061533,0.358769,-0.008515,-0.033808,0.39544,-0.013368,0,0,0,0,0,0,0,0,0,0,0,0,1,0,0
2208,'2025/06/30 16:32:36:359',96,0.315166,-0.009313,-0.010889,-0.011038,-0.014299,0.110652,0.232283,0.044696,0.057074,0.340108,0.008101,-0.044896,0.391701,-0.006147,-0.061533,0.358769,-0.008515,-0.033808,0.39544,-0.013368,0,0,0,0,0,0,0,0,0,0,0,0,1,0,0
2209,'2025/06/30 16:32:36:365',96,0.315166,-0.009313,-0.010889,-0.011038,-0.014299,0.110652,0.232283,0.044696,0.057074,0.340108,0.008101,-0.044896,0.391701,-0.006147,-0.061533,0.358769,-0.008515,-0.033808,0.39544,-0.013368,0,0,0,0,0,0,0,0,0,0,0,0,1,0,0
2210,'2025/06/30 16:32:36:371',96,0.315166,-0.009313,-0.010889,-0.011038,-0.014299,0.110652,0.232283,0.044696,0.057074,0.340108,0.008101,-0.044896,0.391701,-0.006147,-0.061533,0.358769,-0.008515,-0.033808,0.39544,-0.013368,0,0,0,0,0,0,0,0,0,0,0,0,1,0,0
2211,'2025/06/30 16:32:36:375',96,0.315166,-0.009313,-0.010889,-0.011038,-0.014299,0.110652,0.232283,0.044696,0.057074,0.340108,0.008101,-0.044896,0.391701,-0.006147,-0.061533,0.358769,-0.008515,-0.033808,0.39544,-0.013368,0,0,0,0,0,0,0,0,0,0,0,0,1,0,0
2212,'2025/06/30 16:32:36:382',96,0.315166,-0.009313,-0.010889,-0.011038,-0.014299,0.110652,0.232283,0.044696,0.057074,0.340108,0.008101,-0.044896,0.391701,-0.006147,-0.061533,0.358769,-0.008515,-0.033808,0.39544,-0.013368,0,0,0,0,0,0,0,0,0,0,0,0,1,0,0
2213,'2025/06/30 16:32:36:386',96,0.315166,-0.009313,-0.010889,-0.011038,-0.014299,0.110652,0.232283,0.044696,0.057074,0.340108,0.008101,-0.044896,0.391701,-0.006147,-0.061533,0.358769,-0.008515,-0.033808,0.39544,-0.013368,0,0,0,0,0,0,0,0,0,0,0,0,1,0,0
2214,'2025/06/30 16:32:36:391',96,0.315166,-0.009313,-0.010889,-0.011038,-0.014299,0.110652,0.232283,0.044696,0.057074,0.340108,0.008101,-0.044896,0.391701,-0.006147,-0.061533,0.358769,-0.008515,-0.033808,0.39544,-0.013368,0,0,0,0,0,0,0,0,0,0,0,0,1,0,0
2215,'2025/06/30 16:32:36:397',96,0.315166,-0.009313,-0.010889,-0.011038,-0.014299,0.110652,0.232283,0.044696,0.057074,0.340108,0.008101,-0.044896,0.391701,-0.006147,-0.061533,0.358769,-0.008515,-0.033808,0.39544,-0.013368,0,0,0,0,0,0,0,0,0,0,0,0,1,0,0
2216,'2025/06/30 16:32:36:402',96,0.315166,-0.009313,-0.010889,-0.011038,-0.014299,0.110652,0.232283,0.044696,0.057074,0.340108,0.008101,-0.044896,0.391701,-0.006147,-0.061533,0.358769,-0.008515,-0.033808,0.39544,-0.013368,0,0,0,0,0,0,0,0,0,0,0,0,1,0,0
2217,'2025/06/30 16:32:36:409',96,0.315166,-0.009313,-0.010889,-0.011038,-0.014299,0.110652,0.232283,0.044696,0.057074,0.340108,0.008101,-0.044896,0.391701,-0.006147,-0.061533,0.358769,-0.008515,-0.033808,0.39544,-0.013368,0,0,0,0,0,0,0,0,0,0,0,0,1,0,0
2218,'2025/06/30 16:32:36:412',96,0.315166,-0.009313,-0.010889,-0.011038,-0.014299,0.110652,0.232283,0.044696,0.057074,0.340108,0.008101,-0.044896,0.391701,-0.006147,-0.061533,0.358769,-0.008515,-0.033808,0.39544,-0.013368,0,0,0,0,0,0,0,0,0,0,0,0,1,0,0
2219,'2025/06/30 16:32:36:418',96,0.315166,-0.009313,-0.010889,-0.011038,-0.014299,0.110652,0.232283,0.044696,0.057074,0.340108,0.008101,-0.044896,0.391701,-0.006147,-0.061533,0.358769,-0.008515,-0.033808,0.39544,-0.013368,0,0,0,0,0,0,0,0,0,0,0,0,1,0,0
2220,'2025/06/30 16:32:36:423',96,0.315166,-0.009313,-0.010889,-0.011038,-0.014299,0.110652,0.232283,0.044696,0.057074,0.340108,0.008101,-0.044896,0.391701,-0.006147,-0.061533,0.358769,-0.008515,-0.033808,0.39544,-0.013368,0,0,0,0,0,0,0,0,0,0,0,0,1,0,0
2221,'2025/06/30 16:32:36:428',96,0.315166,-0.009313,-0.010889,-0.011038,-0.014299,0.110652,0.232283,0.044696,0.057074,0.340108,0.008101,-0.044896,0.391701,-0.006147,-0.061533,0.358769,-0.008515,-0.033808,0.39544,-0.013368,0,0,0,0,0,0,0,0,0,0,0,0,1,0,0
2222,'2025/06/30 16:32:36:434',96,0.315166,-0.009313,-0.010889,-0.011038,-0.014299,0.110652,0.232283,0.044696,0.057074,0.340108,0.008101,-0.044896,0.391701,-0.006147,-0.061533,0.358769,-0.008515,-0.033808,0.39544,-0.013368,0,0,0,0,0,0,0,0,0,0,0,0,1,0,0
2223,'2025/06/30 16:32:36:440',96,0.315166,-0.009313,-0.010889,-0.011038,-0.014299,0.110652,0.232283,0.044696,0.057074,0.340108,0.008101,-0.044896,0.391701,-0.006147,-0.061533,0.358769,-0.008515,-0.033808,0.39544,-0.013368,0,0,0,0,0,0,0,0,0,0,0,0,1,0,0
2224,'2025/06/30 16:32:36:445',96,0.315166,-0.009313,-0.010889,-0.011038,-0.014299,0.110652,0.232283,0.044696,0.057074,0.340108,0.008101,-0.044896,0.391701,-0.006147,-0.061533,0.358769,-0.008515,-0.033808,0.39544,-0.013368,0,0,0,0,0,0,0,0,0,0,0,0,1,0,0
2225,'2025/06/30 16:32:36:450',96,0.315166,-0.009313,-0.010889,-0.011038,-0.014299,0.110652,0.232283,0.044696,0.057074,0.340108,0.008101,-0.044896,0.391701,-0.006147,-0.061533,0.358769,-0.008515,-0.033808,0.39544,-0.013368,0,0,0,0,0,0,0,0,0,0,0,0,1,0,0
2226,'2025/06/30 16:32:36:457',96,0.315166,-0.009313,-0.010889,-0.011038,-0.014299,0.110652,0.232283,0.044696,0.057074,0.340108,0.008101,-0.044896,0.391701,-0.006147,-0.061533,0.358769,-0.008515,-0.033808,0.39544,-0.013368,0,0,0,0,0,0,0,0,0,0,0,0,1,0,0
2227,'2025/06/30 16:32:36:462',96,0.315166,-0.009313,-0.010889,-0.011038,-0.014299,0.110652,0.232283,0.044696,0.057074,0.340108,0.008101,-0.044896,0.391701,-0.006147,-0.061533,0.358769,-0.008515,-0.033808,0.39544,-0.013368,0,0,0,0,0,0,0,0,0,0,0,0,1,0,0
2228,'2025/06/30 16:32:36:467',96,0.315166,-0.009313,-0.010889,-0.011038,-0.014299,0.110652,0.232283,0.044696,0.057074,0.340108,0.008101,-0.044896,0.391701,-0.006147,-0.061533,0.358769,-0.008515,-0.033808,0.39544,-0.013368,0,0,0,0,0,0,0,0,0,0,0,0,1,0,0
2229,'2025/06/30 16:32:36:474',96,0.315166,-0.009313,-0.010889,-0.011038,-0.014299,0.110652,0.232283,0.044696,0.057074,0.340108,0.008101,-0.044896,0.391701,-0.006147,-0.061533,0.358769,-0.008515,-0.033808,0.39544,-0.013368,0,0,0,0,0,0,0,0,0,0,0,0,1,0,0
2230,'2025/06/30 16:32:36:480',96,0.315166,-0.009313,-0.010889,-0.011038,-0.014299,0.110652,0.232283,0.044696,0.057074,0.340108,0.008101,-0.044896,0.391701,-0.006147,-0.061533,0.358769,-0.008515,-0.033808,0.39544,-0.013368,0,0,0,0,0,0,0,0,0,0,0,0,1,0,0
2231,'2025/06/30 16:32:36:485',96,0.315166,-0.009313,-0.010889,-0.011038,-0.014299,0.110652,0.232283,0.044696,0.057074,0.340108,0.008101,-0.044896,0.391701,-0.006147,-0.061533,0.358769,-0.008515,-0.033808,0.39544,-0.013368,0,0,0,0,0,0,0,0,0,0,0,0,1,0,0
2232,'2025/06/30 16:32:36:490',96,0.315166,-0.009313,-0.010889,-0.011038,-0.014299,0.110652,0.232283,0.044696,0.057074,0.340108,0.008101,-0.044896,0.391701,-0.006147,-0.061533,0.358769,-0.008515,-0.033808,0.39544,-0.013368,0,0,0,0,0,0,0,0,0,0,0,0,1,0,0
2233,'2025/06/30 16:32:36:496',96,0.315166,-0.009313,-0.010889,-0.011038,-0.014299,0.110652,0.232283,0.044696,0.057074,0.340108,0.008101,-0.044896,0.391701,-0.006147,-0.061533,0.358769,-0.008515,-0.033808,0.39544,-0.013368,0,0,0,0,0,0,0,0,0,0,0,0,1,0,0
2234,'2025/06/30 16:32:48:496',97,0.315166,-0.014999,-0.016249,-0.014214,-0.016572,0.110652,0.232283,0.044696,0.107688,0.419196,0.01319,0.03444,0.415677,-0.004779,-0.026315,0.436909,-0.008165,-0.016238,0.487072,-0.014561,0,0,0,0,0,0,0,0,0,0,0,0,1,0,0
2235,'2025/06/30 16:32:48:501',97,0.315166,-0.014999,-0.016249,-0.014214,-0.016572,0.110652,0.232283,0.044696,0.107688,0.419196,0.01319,0.03444,0.415677,-0.004779,-0.026315,0.436909,-0.008165,-0.016238,0.487072,-0.014561,0,0,0,0,0,0,0,0,0,0,0,0,1,0,0
2236,'2025/06/30 16:32:48:505',97,0.315166,-0.014999,-0.016249,-0.014214,-0.016572,0.110652,0.232283,0.044696,0.107688,0.419196,0.01319,0.03444,0.415677,-0.004779,-0.026315,0.436909,-0.008165,-0.016238,0.487072,-0.014561,0,0,0,0,0,0,0,0,0,0,0,0,1,0,0
2237,'2025/06/30 16:32:48:510',97,0.315166,-0.014999,-0.016249,-0.014214,-0.016572,0.110652,0.232283,0.044696,0.107688,0.419196,0.01319,0.03444,0.415677,-0.004779,-0.026315,0.436909,-0.008165,-0.016238,0.487072,-0.014561,0,0,0,0,0,0,0,0,0,0,0,0,1,0,0
2238,'2025/06/30 16:32:48:516',97,0.315166,-0.014999,-0.016249,-0.014214,-0.016572,0.110652,0.232283,0.044696,0.107688,0.419196,0.01319,0.03444,0.415677,-0.004779,-0.026315,0.436909,-0.008165,-0.016238,0.487072,-0.014561,0,0,0,0,0,0,0,0,0,0,0,0,1,0,0
2239,'2025/06/30 16:32:48:520',97,0.315166,-0.014999,-0.016249,-0.014214,-0.016572,0.110652,0.232283,0.044696,0.107688,0.419196,0.01319,0.03444,0.415677,-0.004779,-0.026315,0.436909,-0.008165,-0.016238,0.487072,-0.014561,0,0,0,0,0,0,0,0,0,0,0,0,1,0,0
2240,'2025/06/30 16:32:48:526',97,0.315166,-0.014999,-0.016249,-0.014214,-0.016572,0.110652,0.232283,0.044696,0.107688,0.419196,0.01319,0.03444,0.415677,-0.004779,-0.026315,0.436909,-0.008165,-0.016238,0.487072,-0.014561,0,0,0,0,0,0,0,0,0,0,0,0,1,0,0
2241,'2025/06/30 16:32:48:532',97,0.315166,-0.014999,-0.016249,-0.014214,-0.016572,0.110652,0.232283,0.044696,0.107688,0.419196,0.01319,0.03444,0.415677,-0.004779,-0.026315,0.436909,-0.008165,-0.016238,0.487072,-0.014561,0,0,0,0,0,0,0,0,0,0,0,0,1,0,0
2242,'2025/06/30 16:32:48:537',97,0.315166,-0.014999,-0.016249,-0.014214,-0.016572,0.110652,0.232283,0.044696,0.107688,0.419196,0.01319,0.03444,0.415677,-0.004779,-0.026315,0.436909,-0.008165,-0.016238,0.487072,-0.014561,0,0,0,0,0,0,0,0,0,0,0,0,1,0,0
2243,'2025/06/30 16:32:48:543',97,0.315166,-0.014999,-0.016249,-0.014214,-0.016572,0.110652,0.232283,0.044696,0.107688,0.419196,0.01319,0.03444,0.415677,-0.004779,-0.026315,0.436909,-0.008165,-0.016238,0.487072,-0.014561,0,0,0,0,0,0,0,0,0,0,0,0,1,0,0
2244,'2025/06/30 16:32:48:548',97,0.315166,-0.014999,-0.016249,-0.014214,-0.016572,0.110652,0.232283,0.044696,0.107688,0.419196,0.01319,0.03444,0.415677,-0.004779,-0.026315,0.436909,-0.008165,-0.016238,0.487072,-0.014561,0,0,0,0,0,0,0,0,0,0,0,0,1,0,0
2245,'2025/06/30 16:32:48:554',97,0.315166,-0.014999,-0.016249,-0.014214,-0.016572,0.110652,0.232283,0.044696,0.107688,0.419196,0.01319,0.03444,0.415677,-0.004779,-0.026315,0.436909,-0.008165,-0.016238,0.487072,-0.014561,0,0,0,0,0,0,0,0,0,0,0,0,1,0,0
2246,'2025/06/30 16:32:48:561',97,0.315166,-0.014999,-0.016249,-0.014214,-0.016572,0.110652,0.232283,0.044696,0.107688,0.419196,0.01319,0.03444,0.415677,-0.004779,-0.026315,0.436909,-0.008165,-0.016238,0.487072,-0.014561,0,0,0,0,0,0,0,0,0,0,0,0,1,0,0
2247,'2025/06/30 16:32:48:567',97,0.315166,-0.014999,-0.016249,-0.014214,-0.016572,0.110652,0.232283,0.044696,0.107688,0.419196,0.01319,0.03444,0.415677,-0.004779,-0.026315,0.436909,-0.008165,-0.016238,0.487072,-0.014561,0,0,0,0,0,0,0,0,0,0,0,0,1,0,0
2248,'2025/06/30 16:32:48:572',97,0.315166,-0.014999,-0.016249,-0.014214,-0.016572,0.110652,0.232283,0.044696,0.107688,0.419196,0.01319,0.03444,0.415677,-0.004779,-0.026315,0.436909,-0.008165,-0.016238,0.487072,-0.014561,0,0,0,0,0,0,0,0,0,0,0,0,1,0,0
2249,'2025/06/30 16:32:48:578',97,0.315166,-0.014999,-0.016249,-0.014214,-0.016572,0.110652,0.232283,0.044696,0.107688,0.419196,0.01319,0.03444,0.415677,-0.004779,-0.026315,0.436909,-0.008165,-0.016238,0.487072,-0.014561,0,0,0,0,0,0,0,0,0,0,0,0,1,0,0
2250,'2025/06/30 16:32:48:582',97,0.315166,-0.014999,-0.016249,-0.014214,-0.016572,0.110652,0.232283,0.044696,0.107688,0.419196,0.01319,0.03444,0.415677,-0.004779,-0.026315,0.436909,-0.008165,-0.016238,0.487072,-0.014561,0,0,0,0,0,0,0,0,0,0,0,0,1,0,0
2251,'2025/06/30 16:32:48:587',97,0.315166,-0.014999,-0.016249,-0.014214,-0.016572,0.110652,0.232283,0.044696,0.107688,0.419196,0.01319,0.03444,0.415677,-0.004779,-0.026315,0.436909,-0.008165,-0.016238,0.487072,-0.014561,0,0,0,0,0,0,0,0,0,0,0,0,1,0,0
2252,'2025/06/30 16:32:48:592',97,0.315166,-0.014999,-0.016249,-0.014214,-0.016572,0.110652,0.232283,0.044696,0.107688,0.419196,0.01319,0.03444,0.415677,-0.004779,-0.026315,0.436909,-0.008165,-0.016238,0.487072,-0.014561,0,0,0,0,0,0,0,0,0,0,0,0,1,0,0
2253,'2025/06/30 16:32:48:598',97,0.315166,-0.014999,-0.016249,-0.014214,-0.016572,0.110652,0.232283,0.044696,0.107688,0.419196,0.01319,0.03444,0.415677,-0.004779,-0.026315,0.436909,-0.008165,-0.016238,0.487072,-0.014561,0,0,0,0,0,0,0,0,0,0,0,0,1,0,0
2254,'2025/06/30 16:32:48:603',97,0.315166,-0.014999,-0.016249,-0.014214,-0.016572,0.110652,0.232283,0.044696,0.107688,0.419196,0.01319,0.03444,0.415677,-0.004779,-0.026315,0.436909,-0.008165,-0.016238,0.487072,-0.014561,0,0,0,0,0,0,0,0,0,0,0,0,1,0,0
2255,'2025/06/30 16:32:48:609',97,0.315166,-0.014999,-0.016249,-0.014214,-0.016572,0.110652,0.232283,0.044696,0.107688,0.419196,0.01319,0.03444,0.415677,-0.004779,-0.026315,0.436909,-0.008165,-0.016238,0.487072,-0.014561,0,0,0,0,0,0,0,0,0,0,0,0,1,0,0
2256,'2025/06/30 16:32:48:614',97,0.315166,-0.014999,-0.016249,-0.014214,-0.016572,0.110652,0.232283,0.044696,0.107688,0.419196,0.01319,0.03444,0.415677,-0.004779,-0.026315,0.436909,-0.008165,-0.016238,0.487072,-0.014561,0,0,0,0,0,0,0,0,0,0,0,0,1,0,0
2257,'2025/06/30 16:32:48:620',97,0.315166,-0.014999,-0.016249,-0.014214,-0.016572,0.110652,0.232283,0.044696,0.107688,0.419196,0.01319,0.03444,0.415677,-0.004779,-0.026315,0.436909,-0.008165,-0.016238,0.487072,-0.014561,0,0,0,0,0,0,0,0,0,0,0,0,1,0,0
2258,'2025/06/30 16:32:48:626',97,0.315166,-0.014999,-0.016249,-0.014214,-0.016572,0.110652,0.232283,0.044696,0.107688,0.419196,0.01319,0.03444,0.415677,-0.004779,-0.026315,0.436909,-0.008165,-0.016238,0.487072,-0.014561,0,0,0,0,0,0,0,0,0,0,0,0,1,0,0
2259,'2025/06/30 16:32:48:632',97,0.315166,-0.014999,-0.016249,-0.014214,-0.016572,0.110652,0.232283,0.044696,0.107688,0.419196,0.01319,0.03444,0.415677,-0.004779,-0.026315,0.436909,-0.008165,-0.016238,0.487072,-0.014561,0,0,0,0,0,0,0,0,0,0,0,0,1,0,0
2260,'2025/06/30 16:32:48:637',97,0.315166,-0.014999,-0.016249,-0.014214,-0.016572,0.110652,0.232283,0.044696,0.107688,0.419196,0.01319,0.03444,0.415677,-0.004779,-0.026315,0.436909,-0.008165,-0.016238,0.487072,-0.014561,0,0,0,0,0,0,0,0,0,0,0,0,1,0,0
2261,'2025/06/30 16:32:53:031',98,0.354428,-0.014999,-0.016249,-0.014214,-0.016572,0.103991,0.219904,-0.026306,0.107688,0.419196,0.01319,0.03444,0.415677,-0.004779,-0.026315,0.436909,-0.008165,-0.016238,0.487072,-0.014561,0,0,0,0,0,0,0,0,0,0,0,0,1,0,0
2262,'2025/06/30 16:32:53:036',98,0.354428,-0.014999,-0.016249,-0.014214,-0.016572,0.103991,0.219904,-0.026306,0.107688,0.419196,0.01319,0.03444,0.415677,-0.004779,-0.026315,0.436909,-0.008165,-0.016238,0.487072,-0.014561,0,0,0,0,0,0,0,0,0,0,0,0,1,0,0
2263,'2025/06/30 16:32:53:041',98,0.354428,-0.014999,-0.016249,-0.014214,-0.016572,0.103991,0.219904,-0.026306,0.107688,0.419196,0.01319,0.03444,0.415677,-0.004779,-0.026315,0.436909,-0.008165,-0.016238,0.487072,-0.014561,0,0,0,0,0,0,0,0,0,0,0,0,1,0,0
2264,'2025/06/30 16:32:53:048',98,0.354428,-0.014999,-0.016249,-0.014214,-0.016572,0.103991,0.219904,-0.026306,0.107688,0.419196,0.01319,0.03444,0.415677,-0.004779,-0.026315,0.436909,-0.008165,-0.016238,0.487072,-0.014561,0,0,0,0,0,0,0,0,0,0,0,0,1,0,0
2265,'2025/06/30 16:32:53:053',98,0.354428,-0.014999,-0.016249,-0.014214,-0.016572,0.103991,0.219904,-0.026306,0.107688,0.419196,0.01319,0.03444,0.415677,-0.004779,-0.026315,0.436909,-0.008165,-0.016238,0.487072,-0.014561,0,0,0,0,0,0,0,0,0,0,0,0,1,0,0
2266,'2025/06/30 16:32:53:058',98,0.354428,-0.014999,-0.016249,-0.014214,-0.016572,0.103991,0.219904,-0.026306,0.107688,0.419196,0.01319,0.03444,0.415677,-0.004779,-0.026315,0.436909,-0.008165,-0.016238,0.487072,-0.014561,0,0,0,0,0,0,0,0,0,0,0,0,1,0,0
2267,'2025/06/30 16:32:53:064',98,0.354428,-0.014999,-0.016249,-0.014214,-0.016572,0.103991,0.219904,-0.026306,0.107688,0.419196,0.01319,0.03444,0.415677,-0.004779,-0.026315,0.436909,-0.008165,-0.016238,0.487072,-0.014561,0,0,0,0,0,0,0,0,0,0,0,0,1,0,0
2268,'2025/06/30 16:32:53:069',98,0.354428,-0.014999,-0.016249,-0.014214,-0.016572,0.103991,0.219904,-0.026306,0.107688,0.419196,0.01319,0.03444,0.415677,-0.004779,-0.026315,0.436909,-0.008165,-0.016238,0.487072,-0.014561,0,0,0,0,0,0,0,0,0,0,0,0,1,0,0
2269,'2025/06/30 16:32:53:075',98,0.354428,-0.014999,-0.016249,-0.014214,-0.016572,0.103991,0.219904,-0.026306,0.107688,0.419196,0.01319,0.03444,0.415677,-0.004779,-0.026315,0.436909,-0.008165,-0.016238,0.487072,-0.014561,0,0,0,0,0,0,0,0,0,0,0,0,1,0,0
2270,'2025/06/30 16:32:53:081',98,0.354428,-0.014999,-0.016249,-0.014214,-0.016572,0.103991,0.219904,-0.026306,0.107688,0.419196,0.01319,0.03444,0.415677,-0.004779,-0.026315,0.436909,-0.008165,-0.016238,0.487072,-0.014561,0,0,0,0,0,0,0,0,0,0,0,0,1,0,0
2271,'2025/06/30 16:32:53:086',98,0.354428,-0.014999,-0.016249,-0.014214,-0.016572,0.103991,0.219904,-0.026306,0.107688,0.419196,0.01319,0.03444,0.415677,-0.004779,-0.026315,0.436909,-0.008165,-0.016238,0.487072,-0.014561,0,0,0,0,0,0,0,0,0,0,0,0,1,0,0
2272,'2025/06/30 16:32:53:092',98,0.354428,-0.014999,-0.016249,-0.014214,-0.016572,0.103991,0.219904,-0.026306,0.107688,0.419196,0.01319,0.03444,0.415677,-0.004779,-0.026315,0.436909,-0.008165,-0.016238,0.487072,-0.014561,0,0,0,0,0,0,0,0,0,0,0,0,1,0,0
2273,'2025/06/30 16:32:53:098',98,0.354428,-0.014999,-0.016249,-0.014214,-0.016572,0.103991,0.219904,-0.026306,0.107688,0.419196,0.01319,0.03444,0.415677,-0.004779,-0.026315,0.436909,-0.008165,-0.016238,0.487072,-0.014561,0,0,0,0,0,0,0,0,0,0,0,0,1,0,0
2274,'2025/06/30 16:32:53:103',98,0.354428,-0.014999,-0.016249,-0.014214,-0.016572,0.103991,0.219904,-0.026306,0.107688,0.419196,0.01319,0.03444,0.415677,-0.004779,-0.026315,0.436909,-0.008165,-0.016238,0.487072,-0.014561,0,0,0,0,0,0,0,0,0,0,0,0,1,0,0
2275,'2025/06/30 16:32:53:109',98,0.354428,-0.014999,-0.016249,-0.014214,-0.016572,0.103991,0.219904,-0.026306,0.107688,0.419196,0.01319,0.03444,0.415677,-0.004779,-0.026315,0.436909,-0.008165,-0.016238,0.487072,-0.014561,0,0,0,0,0,0,0,0,0,0,0,0,1,0,0
2276,'2025/06/30 16:32:53:115',98,0.354428,-0.014999,-0.016249,-0.014214,-0.016572,0.103991,0.219904,-0.026306,0.107688,0.419196,0.01319,0.03444,0.415677,-0.004779,-0.026315,0.436909,-0.008165,-0.016238,0.487072,-0.014561,0,0,0,0,0,0,0,0,0,0,0,0,1,0,0
2277,'2025/06/30 16:32:53:121',98,0.354428,-0.014999,-0.016249,-0.014214,-0.016572,0.103991,0.219904,-0.026306,0.107688,0.419196,0.01319,0.03444,0.415677,-0.004779,-0.026315,0.436909,-0.008165,-0.016238,0.487072,-0.014561,0,0,0,0,0,0,0,0,0,0,0,0,1,0,0
2278,'2025/06/30 16:32:53:126',98,0.354428,-0.014999,-0.016249,-0.014214,-0.016572,0.103991,0.219904,-0.026306,0.107688,0.419196,0.01319,0.03444,0.415677,-0.004779,-0.026315,0.436909,-0.008165,-0.016238,0.487072,-0.014561,0,0,0,0,0,0,0,0,0,0,0,0,1,0,0
2279,'2025/06/30 16:32:53:131',98,0.354428,-0.014999,-0.016249,-0.014214,-0.016572,0.103991,0.219904,-0.026306,0.107688,0.419196,0.01319,0.03444,0.415677,-0.004779,-0.026315,0.436909,-0.008165,-0.016238,0.487072,-0.014561,0,0,0,0,0,0,0,0,0,0,0,0,1,0,0
2280,'2025/06/30 16:32:53:138',98,0.354428,-0.014999,-0.016249,-0.014214,-0.016572,0.103991,0.219904,-0.026306,0.107688,0.419196,0.01319,0.03444,0.415677,-0.004779,-0.026315,0.436909,-0.008165,-0.016238,0.487072,-0.014561,0,0,0,0,0,0,0,0,0,0,0,0,1,0,0
2281,'2025/06/30 16:32:53:143',98,0.354428,-0.014999,-0.016249,-0.014214,-0.016572,0.103991,0.219904,-0.026306,0.107688,0.419196,0.01319,0.03444,0.415677,-0.004779,-0.026315,0.436909,-0.008165,-0.016238,0.487072,-0.014561,0,0,0,0,0,0,0,0,0,0,0,0,1,0,0
2282,'2025/06/30 16:32:53:150',98,0.354428,-0.014999,-0.016249,-0.014214,-0.016572,0.103991,0.219904,-0.026306,0.107688,0.419196,0.01319,0.03444,0.415677,-0.004779,-0.026315,0.436909,-0.008165,-0.016238,0.487072,-0.014561,0,0,0,0,0,0,0,0,0,0,0,0,1,0,0
2283,'2025/06/30 16:32:53:155',98,0.354428,-0.014999,-0.016249,-0.014214,-0.016572,0.103991,0.219904,-0.026306,0.107688,0.419196,0.01319,0.03444,0.415677,-0.004779,-0.026315,0.436909,-0.008165,-0.016238,0.487072,-0.014561,0,0,0,0,0,0,0,0,0,0,0,0,1,0,0
2284,'2025/06/30 16:32:53:161',98,0.354428,-0.014999,-0.016249,-0.014214,-0.016572,0.103991,0.219904,-0.026306,0.107688,0.419196,0.01319,0.03444,0.415677,-0.004779,-0.026315,0.436909,-0.008165,-0.016238,0.487072,-0.014561,0,0,0,0,0,0,0,0,0,0,0,0,1,0,0
2285,'2025/06/30 16:33:15:984',99,0.439908,-0.014999,-0.016249,-0.014214,-0.016572,0.066698,0.306031,0.016259,0.107688,0.419196,0.01319,0.03444,0.415677,-0.004779,-0.026315,0.436909,-0.008165,-0.016238,0.487072,-0.014561,0,0,0,0,0,0,0,0,0,0,0,0,1,0,0
2286,'2025/06/30 16:33:15:989',99,0.439908,-0.014999,-0.016249,-0.014214,-0.016572,0.066698,0.306031,0.016259,0.107688,0.419196,0.01319,0.03444,0.415677,-0.004779,-0.026315,0.436909,-0.008165,-0.016238,0.487072,-0.014561,0,0,0,0,0,0,0,0,0,0,0,0,1,0,0
2287,'2025/06/30 16:33:15:994',99,0.439908,-0.014999,-0.016249,-0.014214,-0.016572,0.066698,0.306031,0.016259,0.107688,0.419196,0.01319,0.03444,0.415677,-0.004779,-0.026315,0.436909,-0.008165,-0.016238,0.487072,-0.014561,0,0,0,0,0,0,0,0,0,0,0,0,1,0,0
2288,'2025/06/30 16:33:16:000',99,0.439908,-0.014999,-0.016249,-0.014214,-0.016572,0.066698,0.306031,0.016259,0.107688,0.419196,0.01319,0.03444,0.415677,-0.004779,-0.026315,0.436909,-0.008165,-0.016238,0.487072,-0.014561,0,0,0,0,0,0,0,0,0,0,0,0,1,0,0
2289,'2025/06/30 16:33:16:005',99,0.439908,-0.014999,-0.016249,-0.014214,-0.016572,0.066698,0.306031,0.016259,0.107688,0.419196,0.01319,0.03444,0.415677,-0.004779,-0.026315,0.436909,-0.008165,-0.016238,0.487072,-0.014561,0,0,0,0,0,0,0,0,0,0,0,0,1,0,0
2290,'2025/06/30 16:33:16:011',99,0.439908,-0.014999,-0.016249,-0.014214,-0.016572,0.066698,0.306031,0.016259,0.107688,0.419196,0.01319,0.03444,0.415677,-0.004779,-0.026315,0.436909,-0.008165,-0.016238,0.487072,-0.014561,0,0,0,0,0,0,0,0,0,0,0,0,1,0,0
2291,'2025/06/30 16:33:16:015',99,0.439908,-0.014999,-0.016249,-0.014214,-0.016572,0.066698,0.306031,0.016259,0.107688,0.419196,0.01319,0.03444,0.415677,-0.004779,-0.026315,0.436909,-0.008165,-0.016238,0.487072,-0.014561,0,0,0,0,0,0,0,0,0,0,0,0,1,0,0
2292,'2025/06/30 16:33:16:020',99,0.439908,-0.014999,-0.016249,-0.014214,-0.016572,0.066698,0.306031,0.016259,0.107688,0.419196,0.01319,0.03444,0.415677,-0.004779,-0.026315,0.436909,-0.008165,-0.016238,0.487072,-0.014561,0,0,0,0,0,0,0,0,0,0,0,0,1,0,0
2293,'2025/06/30 16:33:16:025',99,0.439908,-0.014999,-0.016249,-0.014214,-0.016572,0.066698,0.306031,0.016259,0.107688,0.419196,0.01319,0.03444,0.415677,-0.004779,-0.026315,0.436909,-0.008165,-0.016238,0.487072,-0.014561,0,0,0,0,0,0,0,0,0,0,0,0,1,0,0
2294,'2025/06/30 16:33:16:030',99,0.439908,-0.014999,-0.016249,-0.014214,-0.016572,0.066698,0.306031,0.016259,0.107688,0.419196,0.01319,0.03444,0.415677,-0.004779,-0.026315,0.436909,-0.008165,-0.016238,0.487072,-0.014561,0,0,0,0,0,0,0,0,0,0,0,0,1,0,0
2295,'2025/06/30 16:33:16:036',99,0.439908,-0.014999,-0.016249,-0.014214,-0.016572,0.066698,0.306031,0.016259,0.107688,0.419196,0.01319,0.03444,0.415677,-0.004779,-0.026315,0.436909,-0.008165,-0.016238,0.487072,-0.014561,0,0,0,0,0,0,0,0,0,0,0,0,1,0,0
2296,'2025/06/30 16:33:16:042',99,0.439908,-0.014999,-0.016249,-0.014214,-0.016572,0.066698,0.306031,0.016259,0.107688,0.419196,0.01319,0.03444,0.415677,-0.004779,-0.026315,0.436909,-0.008165,-0.016238,0.487072,-0.014561,0,0,0,0,0,0,0,0,0,0,0,0,1,0,0
2297,'2025/06/30 16:33:16:047',99,0.439908,-0.014999,-0.016249,-0.014214,-0.016572,0.066698,0.306031,0.016259,0.107688,0.419196,0.01319,0.03444,0.415677,-0.004779,-0.026315,0.436909,-0.008165,-0.016238,0.487072,-0.014561,0,0,0,0,0,0,0,0,0,0,0,0,1,0,0
2298,'2025/06/30 16:33:16:052',99,0.439908,-0.014999,-0.016249,-0.014214,-0.016572,0.066698,0.306031,0.016259,0.107688,0.419196,0.01319,0.03444,0.415677,-0.004779,-0.026315,0.436909,-0.008165,-0.016238,0.487072,-0.014561,0,0,0,0,0,0,0,0,0,0,0,0,1,0,0
2299,'2025/06/30 16:33:16:057',99,0.439908,-0.014999,-0.016249,-0.014214,-0.016572,0.066698,0.306031,0.016259,0.107688,0.419196,0.01319,0.03444,0.415677,-0.004779,-0.026315,0.436909,-0.008165,-0.016238,0.487072,-0.014561,0,0,0,0,0,0,0,0,0,0,0,0,1,0,0
2300,'2025/06/30 16:33:16:063',99,0.439908,-0.014999,-0.016249,-0.014214,-0.016572,0.066698,0.306031,0.016259,0.107688,0.419196,0.01319,0.03444,0.415677,-0.004779,-0.026315,0.436909,-0.008165,-0.016238,0.487072,-0.014561,0,0,0,0,0,0,0,0,0,0,0,0,1,0,0
2301,'2025/06/30 16:33:16:069',99,0.439908,-0.014999,-0.016249,-0.014214,-0.016572,0.066698,0.306031,0.016259,0.107688,0.419196,0.01319,0.03444,0.415677,-0.004779,-0.026315,0.436909,-0.008165,-0.016238,0.487072,-0.014561,0,0,0,0,0,0,0,0,0,0,0,0,1,0,0
2302,'2025/06/30 16:33:16:073',99,0.439908,-0.014999,-0.016249,-0.014214,-0.016572,0.066698,0.306031,0.016259,0.107688,0.419196,0.01319,0.03444,0.415677,-0.004779,-0.026315,0.436909,-0.008165,-0.016238,0.487072,-0.014561,0,0,0,0,0,0,0,0,0,0,0,0,1,0,0
2303,'2025/06/30 16:33:16:080',99,0.439908,-0.014999,-0.016249,-0.014214,-0.016572,0.066698,0.306031,0.016259,0.107688,0.419196,0.01319,0.03444,0.415677,-0.004779,-0.026315,0.436909,-0.008165,-0.016238,0.487072,-0.014561,0,0,0,0,0,0,0,0,0,0,0,0,1,0,0
2304,'2025/06/30 16:33:16:084',99,0.439908,-0.014999,-0.016249,-0.014214,-0.016572,0.066698,0.306031,0.016259,0.107688,0.419196,0.01319,0.03444,0.415677,-0.004779,-0.026315,0.436909,-0.008165,-0.016238,0.487072,-0.014561,0,0,0,0,0,0,0,0,0,0,0,0,1,0,0
2305,'2025/06/30 16:33:16:090',99,0.439908,-0.014999,-0.016249,-0.014214,-0.016572,0.066698,0.306031,0.016259,0.107688,0.419196,0.01319,0.03444,0.415677,-0.004779,-0.026315,0.436909,-0.008165,-0.016238,0.487072,-0.014561,0,0,0,0,0,0,0,0,0,0,0,0,1,0,0
2306,'2025/06/30 16:33:16:095',99,0.439908,-0.014999,-0.016249,-0.014214,-0.016572,0.066698,0.306031,0.016259,0.107688,0.419196,0.01319,0.03444,0.415677,-0.004779,-0.026315,0.436909,-0.008165,-0.016238,0.487072,-0.014561,0,0,0,0,0,0,0,0,0,0,0,0,1,0,0
2307,'2025/06/30 16:33:16:100',99,0.439908,-0.014999,-0.016249,-0.014214,-0.016572,0.066698,0.306031,0.016259,0.107688,0.419196,0.01319,0.03444,0.415677,-0.004779,-0.026315,0.436909,-0.008165,-0.016238,0.487072,-0.014561,0,0,0,0,0,0,0,0,0,0,0,0,1,0,0
2308,'2025/06/30 16:33:16:106',99,0.439908,-0.014999,-0.016249,-0.014214,-0.016572,0.066698,0.306031,0.016259,0.107688,0.419196,0.01319,0.03444,0.415677,-0.004779,-0.026315,0.436909,-0.008165,-0.016238,0.487072,-0.014561,0,0,0,0,0,0,0,0,0,0,0,0,1,0,0
2309,'2025/06/30 16:33:16:112',99,0.439908,-0.014999,-0.016249,-0.014214,-0.016572,0.066698,0.306031,0.016259,0.107688,0.419196,0.01319,0.03444,0.415677,-0.004779,-0.026315,0.436909,-0.008165,-0.016238,0.487072,-0.014561,0,0,0,0,0,0,0,0,0,0,0,0,1,0,0
2310,'2025/06/30 16:33:16:117',99,0.439908,-0.014999,-0.016249,-0.014214,-0.016572,0.066698,0.306031,0.016259,0.107688,0.419196,0.01319,0.03444,0.415677,-0.004779,-0.026315,0.436909,-0.008165,-0.016238,0.487072,-0.014561,0,0,0,0,0,0,0,0,0,0,0,0,1,0,0
2311,'2025/06/30 16:33:16:123',99,0.439908,-0.014999,-0.016249,-0.014214,-0.016572,0.066698,0.306031,0.016259,0.107688,0.419196,0.01319,0.03444,0.415677,-0.004779,-0.026315,0.436909,-0.008165,-0.016238,0.487072,-0.014561,0,0,0,0,0,0,0,0,0,0,0,0,1,0,0
2312,'2025/06/30 16:33:16:129',99,0.439908,-0.014999,-0.016249,-0.014214,-0.016572,0.066698,0.306031,0.016259,0.107688,0.419196,0.01319,0.03444,0.415677,-0.004779,-0.026315,0.436909,-0.008165,-0.016238,0.487072,-0.014561,0,0,0,0,0,0,0,0,0,0,0,0,1,0,0
2338,'2025/06/30 16:33:32:882',101,0.439908,-0.018227,-0.021333,-0.021991,-0.016572,0.066698,0.306031,0.016259,0.137832,0.386689,0.013158,0.135565,0.247421,-0.002259,0.01106,0.375769,0.006521,-0.016238,0.487072,-0.014561,0,0,0,0,0,0,0,0,0,0,0,0,1,0,0
2339,'2025/06/30 16:33:32:888',101,0.439908,-0.018227,-0.021333,-0.021991,-0.016572,0.066698,0.306031,0.016259,0.137832,0.386689,0.013158,0.135565,0.247421,-0.002259,0.01106,0.375769,0.006521,-0.016238,0.487072,-0.014561,0,0,0,0,0,0,0,0,0,0,0,0,1,0,0
2340,'2025/06/30 16:33:32:893',101,0.439908,-0.018227,-0.021333,-0.021991,-0.016572,0.066698,0.306031,0.016259,0.137832,0.386689,0.013158,0.135565,0.247421,-0.002259,0.01106,0.375769,0.006521,-0.016238,0.487072,-0.014561,0,0,0,0,0,0,0,0,0,0,0,0,1,0,0
2341,'2025/06/30 16:33:32:900',101,0.439908,-0.018227,-0.021333,-0.021991,-0.016572,0.066698,0.306031,0.016259,0.137832,0.386689,0.013158,0.135565,0.247421,-0.002259,0.01106,0.375769,0.006521,-0.016238,0.487072,-0.014561,0,0,0,0,0,0,0,0,0,0,0,0,1,0,0
2342,'2025/06/30 16:33:32:906',101,0.439908,-0.018227,-0.021333,-0.021991,-0.016572,0.066698,0.306031,0.016259,0.137832,0.386689,0.013158,0.135565,0.247421,-0.002259,0.01106,0.375769,0.006521,-0.016238,0.487072,-0.014561,0,0,0,0,0,0,0,0,0,0,0,0,1,0,0
2343,'2025/06/30 16:33:32:910',101,0.439908,-0.018227,-0.021333,-0.021991,-0.016572,0.066698,0.306031,0.016259,0.137832,0.386689,0.013158,0.135565,0.247421,-0.002259,0.01106,0.375769,0.006521,-0.016238,0.487072,-0.014561,0,0,0,0,0,0,0,0,0,0,0,0,1,0,0
2344,'2025/06/30 16:33:32:916',101,0.439908,-0.018227,-0.021333,-0.021991,-0.016572,0.066698,0.306031,0.016259,0.137832,0.386689,0.013158,0.135565,0.247421,-0.002259,0.01106,0.375769,0.006521,-0.016238,0.487072,-0.014561,0,0,0,0,0,0,0,0,0,0,0,0,1,0,0
2345,'2025/06/30 16:33:32:921',101,0.439908,-0.018227,-0.021333,-0.021991,-0.016572,0.066698,0.306031,0.016259,0.137832,0.386689,0.013158,0.135565,0.247421,-0.002259,0.01106,0.375769,0.006521,-0.016238,0.487072,-0.014561,0,0,0,0,0,0,0,0,0,0,0,0,1,0,0
2346,'2025/06/30 16:33:32:928',101,0.439908,-0.018227,-0.021333,-0.021991,-0.016572,0.066698,0.306031,0.016259,0.137832,0.386689,0.013158,0.135565,0.247421,-0.002259,0.01106,0.375769,0.006521,-0.016238,0.487072,-0.014561,0,0,0,0,0,0,0,0,0,0,0,0,1,0,0
2347,'2025/06/30 16:33:32:933',101,0.439908,-0.018227,-0.021333,-0.021991,-0.016572,0.066698,0.306031,0.016259,0.137832,0.386689,0.013158,0.135565,0.247421,-0.002259,0.01106,0.375769,0.006521,-0.016238,0.487072,-0.014561,0,0,0,0,0,0,0,0,0,0,0,0,1,0,0
2348,'2025/06/30 16:33:32:939',101,0.439908,-0.018227,-0.021333,-0.021991,-0.016572,0.066698,0.306031,0.016259,0.137832,0.386689,0.013158,0.135565,0.247421,-0.002259,0.01106,0.375769,0.006521,-0.016238,0.487072,-0.014561,0,0,0,0,0,0,0,0,0,0,0,0,1,0,0
2349,'2025/06/30 16:33:32:945',101,0.439908,-0.018227,-0.021333,-0.021991,-0.016572,0.066698,0.306031,0.016259,0.137832,0.386689,0.013158,0.135565,0.247421,-0.002259,0.01106,0.375769,0.006521,-0.016238,0.487072,-0.014561,0,0,0,0,0,0,0,0,0,0,0,0,1,0,0
2350,'2025/06/30 16:33:32:951',101,0.439908,-0.018227,-0.021333,-0.021991,-0.016572,0.066698,0.306031,0.016259,0.137832,0.386689,0.013158,0.135565,0.247421,-0.002259,0.01106,0.375769,0.006521,-0.016238,0.487072,-0.014561,0,0,0,0,0,0,0,0,0,0,0,0,1,0,0
2351,'2025/06/30 16:33:32:956',101,0.439908,-0.018227,-0.021333,-0.021991,-0.016572,0.066698,0.306031,0.016259,0.137832,0.386689,0.013158,0.135565,0.247421,-0.002259,0.01106,0.375769,0.006521,-0.016238,0.487072,-0.014561,0,0,0,0,0,0,0,0,0,0,0,0,1,0,0
2352,'2025/06/30 16:33:32:962',101,0.439908,-0.018227,-0.021333,-0.021991,-0.016572,0.066698,0.306031,0.016259,0.137832,0.386689,0.013158,0.135565,0.247421,-0.002259,0.01106,0.375769,0.006521,-0.016238,0.487072,-0.014561,0,0,0,0,0,0,0,0,0,0,0,0,1,0,0
2353,'2025/06/30 16:33:32:968',101,0.439908,-0.018227,-0.021333,-0.021991,-0.016572,0.066698,0.306031,0.016259,0.137832,0.386689,0.013158,0.135565,0.247421,-0.002259,0.01106,0.375769,0.006521,-0.016238,0.487072,-0.014561,0,0,0,0,0,0,0,0,0,0,0,0,1,0,0
2354,'2025/06/30 16:33:32:973',101,0.439908,-0.018227,-0.021333,-0.021991,-0.016572,0.066698,0.306031,0.016259,0.137832,0.386689,0.013158,0.135565,0.247421,-0.002259,0.01106,0.375769,0.006521,-0.016238,0.487072,-0.014561,0,0,0,0,0,0,0,0,0,0,0,0,1,0,0
2355,'2025/06/30 16:33:32:979',101,0.439908,-0.018227,-0.021333,-0.021991,-0.016572,0.066698,0.306031,0.016259,0.137832,0.386689,0.013158,0.135565,0.247421,-0.002259,0.01106,0.375769,0.006521,-0.016238,0.487072,-0.014561,0,0,0,0,0,0,0,0,0,0,0,0,1,0,0
2356,'2025/06/30 16:33:32:984',101,0.439908,-0.018227,-0.021333,-0.021991,-0.016572,0.066698,0.306031,0.016259,0.137832,0.386689,0.013158,0.135565,0.247421,-0.002259,0.01106,0.375769,0.006521,-0.016238,0.487072,-0.014561,0,0,0,0,0,0,0,0,0,0,0,0,1,0,0
2357,'2025/06/30 16:33:32:989',101,0.439908,-0.018227,-0.021333,-0.021991,-0.016572,0.066698,0.306031,0.016259,0.137832,0.386689,0.013158,0.135565,0.247421,-0.002259,0.01106,0.375769,0.006521,-0.016238,0.487072,-0.014561,0,0,0,0,0,0,0,0,0,0,0,0,1,0,0
2358,'2025/06/30 16:33:32:994',101,0.439908,-0.018227,-0.021333,-0.021991,-0.016572,0.066698,0.306031,0.016259,0.137832,0.386689,0.013158,0.135565,0.247421,-0.002259,0.01106,0.375769,0.006521,-0.016238,0.487072,-0.014561,0,0,0,0,0,0,0,0,0,0,0,0,1,0,0
2359,'2025/06/30 16:35:39:165',102,-0.154198,-0.034913,-0.026986,-0.018048,-0.006017,0.243327,0,0.128819,0.113913,0.664148,0.065445,0.172812,0.590826,-0.003949,0.18102,0.623641,-0.028712,0.413554,0.345408,-0.052496,0,0,0,0,0,0,0,0,0,0,0,0,0,1,0
2360,'2025/06/30 16:35:39:170',102,-0.154198,-0.034913,-0.026986,-0.018048,-0.006017,0.243327,0,0.128819,0.113913,0.664148,0.065445,0.172812,0.590826,-0.003949,0.18102,0.623641,-0.028712,0.413554,0.345408,-0.052496,0,0,0,0,0,0,0,0,0,0,0,0,0,1,0
2361,'2025/06/30 16:35:39:176',102,-0.154198,-0.034913,-0.026986,-0.018048,-0.006017,0.243327,0,0.128819,0.113913,0.664148,0.065445,0.172812,0.590826,-0.003949,0.18102,0.623641,-0.028712,0.413554,0.345408,-0.052496,0,0,0,0,0,0,0,0,0,0,0,0,0,1,0
2362,'2025/06/30 16:35:39:179',102,-0.154198,-0.034913,-0.026986,-0.018048,-0.006017,0.243327,0,0.128819,0.113913,0.664148,0.065445,0.172812,0.590826,-0.003949,0.18102,0.623641,-0.028712,0.413554,0.345408,-0.052496,0,0,0,0,0,0,0,0,0,0,0,0,0,1,0
2363,'2025/06/30 16:35:39:186',102,-0.154198,-0.034913,-0.026986,-0.018048,-0.006017,0.243327,0,0.128819,0.113913,0.664148,0.065445,0.172812,0.590826,-0.003949,0.18102,0.623641,-0.028712,0.413554,0.345408,-0.052496,0,0,0,0,0,0,0,0,0,0,0,0,0,1,0
2364,'2025/06/30 16:35:39:190',102,-0.154198,-0.034913,-0.026986,-0.018048,-0.006017,0.243327,0,0.128819,0.113913,0.664148,0.065445,0.172812,0.590826,-0.003949,0.18102,0.623641,-0.028712,0.413554,0.345408,-0.052496,0,0,0,0,0,0,0,0,0,0,0,0,0,1,0
2365,'2025/06/30 16:35:39:196',102,-0.154198,-0.034913,-0.026986,-0.018048,-0.006017,0.243327,0,0.128819,0.113913,0.664148,0.065445,0.172812,0.590826,-0.003949,0.18102,0.623641,-0.028712,0.413554,0.345408,-0.052496,0,0,0,0,0,0,0,0,0,0,0,0,0,1,0
2366,'2025/06/30 16:35:39:200',102,-0.154198,-0.034913,-0.026986,-0.018048,-0.006017,0.243327,0,0.128819,0.113913,0.664148,0.065445,0.172812,0.590826,-0.003949,0.18102,0.623641,-0.028712,0.413554,0.345408,-0.052496,0,0,0,0,0,0,0,0,0,0,0,0,0,1,0
2367,'2025/06/30 16:35:39:206',102,-0.154198,-0.034913,-0.026986,-0.018048,-0.006017,0.243327,0,0.128819,0.113913,0.664148,0.065445,0.172812,0.590826,-0.003949,0.18102,0.623641,-0.028712,0.413554,0.345408,-0.052496,0,0,0,0,0,0,0,0,0,0,0,0,0,1,0
2368,'2025/06/30 16:35:39:211',102,-0.154198,-0.034913,-0.026986,-0.018048,-0.006017,0.243327,0,0.128819,0.113913,0.664148,0.065445,0.172812,0.590826,-0.003949,0.18102,0.623641,-0.028712,0.413554,0.345408,-0.052496,0,0,0,0,0,0,0,0,0,0,0,0,0,1,0
2369,'2025/06/30 16:35:39:217',102,-0.154198,-0.034913,-0.026986,-0.018048,-0.006017,0.243327,0,0.128819,0.113913,0.664148,0.065445,0.172812,0.590826,-0.003949,0.18102,0.623641,-0.028712,0.413554,0.345408,-0.052496,0,0,0,0,0,0,0,0,0,0,0,0,0,1,0
2370,'2025/06/30 16:35:39:222',102,-0.154198,-0.034913,-0.026986,-0.018048,-0.006017,0.243327,0,0.128819,0.113913,0.664148,0.065445,0.172812,0.590826,-0.003949,0.18102,0.623641,-0.028712,0.413554,0.345408,-0.052496,0,0,0,0,0,0,0,0,0,0,0,0,0,1,0
2371,'2025/06/30 16:35:39:229',102,-0.154198,-0.034913,-0.026986,-0.018048,-0.006017,0.243327,0,0.128819,0.113913,0.664148,0.065445,0.172812,0.590826,-0.003949,0.18102,0.623641,-0.028712,0.413554,0.345408,-0.052496,0,0,0,0,0,0,0,0,0,0,0,0,0,1,0
2372,'2025/06/30 16:35:39:235',102,-0.154198,-0.034913,-0.026986,-0.018048,-0.006017,0.243327,0,0.128819,0.113913,0.664148,0.065445,0.172812,0.590826,-0.003949,0.18102,0.623641,-0.028712,0.413554,0.345408,-0.052496,0,0,0,0,0,0,0,0,0,0,0,0,0,1,0
2373,'2025/06/30 16:35:39:239',102,-0.154198,-0.034913,-0.026986,-0.018048,-0.006017,0.243327,0,0.128819,0.113913,0.664148,0.065445,0.172812,0.590826,-0.003949,0.18102,0.623641,-0.028712,0.413554,0.345408,-0.052496,0,0,0,0,0,0,0,0,0,0,0,0,0,1,0
2374,'2025/06/30 16:35:39:246',102,-0.154198,-0.034913,-0.026986,-0.018048,-0.006017,0.243327,0,0.128819,0.113913,0.664148,0.065445,0.172812,0.590826,-0.003949,0.18102,0.623641,-0.028712,0.413554,0.345408,-0.052496,0,0,0,0,0,0,0,0,0,0,0,0,0,1,0
2375,'2025/06/30 16:35:39:251',102,-0.154198,-0.034913,-0.026986,-0.018048,-0.006017,0.243327,0,0.128819,0.113913,0.664148,0.065445,0.172812,0.590826,-0.003949,0.18102,0.623641,-0.028712,0.413554,0.345408,-0.052496,0,0,0,0,0,0,0,0,0,0,0,0,0,1,0
2376,'2025/06/30 16:35:39:259',102,-0.154198,-0.034913,-0.026986,-0.018048,-0.006017,0.243327,0,0.128819,0.113913,0.664148,0.065445,0.172812,0.590826,-0.003949,0.18102,0.623641,-0.028712,0.413554,0.345408,-0.052496,0,0,0,0,0,0,0,0,0,0,0,0,0,1,0
2377,'2025/06/30 16:35:39:265',102,-0.154198,-0.034913,-0.026986,-0.018048,-0.006017,0.243327,0,0.128819,0.113913,0.664148,0.065445,0.172812,0.590826,-0.003949,0.18102,0.623641,-0.028712,0.413554,0.345408,-0.052496,0,0,0,0,0,0,0,0,0,0,0,0,0,1,0
2378,'2025/06/30 16:35:39:270',102,-0.154198,-0.034913,-0.026986,-0.018048,-0.006017,0.243327,0,0.128819,0.113913,0.664148,0.065445,0.172812,0.590826,-0.003949,0.18102,0.623641,-0.028712,0.413554,0.345408,-0.052496,0,0,0,0,0,0,0,0,0,0,0,0,0,1,0
2379,'2025/06/30 16:35:39:275',102,-0.154198,-0.034913,-0.026986,-0.018048,-0.006017,0.243327,0,0.128819,0.113913,0.664148,0.065445,0.172812,0.590826,-0.003949,0.18102,0.623641,-0.028712,0.413554,0.345408,-0.052496,0,0,0,0,0,0,0,0,0,0,0,0,0,1,0
2380,'2025/06/30 16:35:39:280',102,-0.154198,-0.034913,-0.026986,-0.018048,-0.006017,0.243327,0,0.128819,0.113913,0.664148,0.065445,0.172812,0.590826,-0.003949,0.18102,0.623641,-0.028712,0.413554,0.345408,-0.052496,0,0,0,0,0,0,0,0,0,0,0,0,0,1,0
2381,'2025/06/30 16:35:39:285',102,-0.154198,-0.034913,-0.026986,-0.018048,-0.006017,0.243327,0,0.128819,0.113913,0.664148,0.065445,0.172812,0.590826,-0.003949,0.18102,0.623641,-0.028712,0.413554,0.345408,-0.052496,0,0,0,0,0,0,0,0,0,0,0,0,0,1,0
2382,'2025/06/30 16:35:39:290',102,-0.154198,-0.034913,-0.026986,-0.018048,-0.006017,0.243327,0,0.128819,0.113913,0.664148,0.065445,0.172812,0.590826,-0.003949,0.18102,0.623641,-0.028712,0.413554,0.345408,-0.052496,0,0,0,0,0,0,0,0,0,0,0,0,0,1,0
2383,'2025/06/30 16:35:39:295',102,-0.154198,-0.034913,-0.026986,-0.018048,-0.006017,0.243327,0,0.128819,0.113913,0.664148,0.065445,0.172812,0.590826,-0.003949,0.18102,0.623641,-0.028712,0.413554,0.345408,-0.052496,0,0,0,0,0,0,0,0,0,0,0,0,0,1,0
2384,'2025/06/30 16:35:39:300',102,-0.154198,-0.034913,-0.026986,-0.018048,-0.006017,0.243327,0,0.128819,0.113913,0.664148,0.065445,0.172812,0.590826,-0.003949,0.18102,0.623641,-0.028712,0.413554,0.345408,-0.052496,0,0,0,0,0,0,0,0,0,0,0,0,0,1,0
2385,'2025/06/30 16:35:39:308',102,-0.154198,-0.034913,-0.026986,-0.018048,-0.006017,0.243327,0,0.128819,0.113913,0.664148,0.065445,0.172812,0.590826,-0.003949,0.18102,0.623641,-0.028712,0.413554,0.345408,-0.052496,0,0,0,0,0,0,0,0,0,0,0,0,0,1,0
2386,'2025/06/30 16:35:39:313',102,-0.154198,-0.034913,-0.026986,-0.018048,-0.006017,0.243327,0,0.128819,0.113913,0.664148,0.065445,0.172812,0.590826,-0.003949,0.18102,0.623641,-0.028712,0.413554,0.345408,-0.052496,0,0,0,0,0,0,0,0,0,0,0,0,0,1,0
2413,'2025/06/30 16:36:15:146',104,-0.151335,-0.068126,-0.039422,-0.023005,0.035685,0.324921,0,0.120352,0.367377,0.428996,0.058706,0.379758,0.414518,-0.00167,0.302583,0.519323,-0.02566,0.446269,0.330273,-0.106804,0,0,0,0,0,0,0,0,0,0,0,0,0,1,0
2414,'2025/06/30 16:36:15:152',104,-0.151335,-0.068126,-0.039422,-0.023005,0.035685,0.324921,0,0.120352,0.367377,0.428996,0.058706,0.379758,0.414518,-0.00167,0.302583,0.519323,-0.02566,0.446269,0.330273,-0.106804,0,0,0,0,0,0,0,0,0,0,0,0,0,1,0
2415,'2025/06/30 16:36:15:157',104,-0.151335,-0.068126,-0.039422,-0.023005,0.035685,0.324921,0,0.120352,0.367377,0.428996,0.058706,0.379758,0.414518,-0.00167,0.302583,0.519323,-0.02566,0.446269,0.330273,-0.106804,0,0,0,0,0,0,0,0,0,0,0,0,0,1,0
2416,'2025/06/30 16:36:15:162',104,-0.151335,-0.068126,-0.039422,-0.023005,0.035685,0.324921,0,0.120352,0.367377,0.428996,0.058706,0.379758,0.414518,-0.00167,0.302583,0.519323,-0.02566,0.446269,0.330273,-0.106804,0,0,0,0,0,0,0,0,0,0,0,0,0,1,0
2417,'2025/06/30 16:36:15:166',104,-0.151335,-0.068126,-0.039422,-0.023005,0.035685,0.324921,0,0.120352,0.367377,0.428996,0.058706,0.379758,0.414518,-0.00167,0.302583,0.519323,-0.02566,0.446269,0.330273,-0.106804,0,0,0,0,0,0,0,0,0,0,0,0,0,1,0
2418,'2025/06/30 16:36:15:171',104,-0.151335,-0.068126,-0.039422,-0.023005,0.035685,0.324921,0,0.120352,0.367377,0.428996,0.058706,0.379758,0.414518,-0.00167,0.302583,0.519323,-0.02566,0.446269,0.330273,-0.106804,0,0,0,0,0,0,0,0,0,0,0,0,0,1,0
2419,'2025/06/30 16:36:15:176',104,-0.151335,-0.068126,-0.039422,-0.023005,0.035685,0.324921,0,0.120352,0.367377,0.428996,0.058706,0.379758,0.414518,-0.00167,0.302583,0.519323,-0.02566,0.446269,0.330273,-0.106804,0,0,0,0,0,0,0,0,0,0,0,0,0,1,0
2420,'2025/06/30 16:36:15:182',104,-0.151335,-0.068126,-0.039422,-0.023005,0.035685,0.324921,0,0.120352,0.367377,0.428996,0.058706,0.379758,0.414518,-0.00167,0.302583,0.519323,-0.02566,0.446269,0.330273,-0.106804,0,0,0,0,0,0,0,0,0,0,0,0,0,1,0
2421,'2025/06/30 16:36:15:187',104,-0.151335,-0.068126,-0.039422,-0.023005,0.035685,0.324921,0,0.120352,0.367377,0.428996,0.058706,0.379758,0.414518,-0.00167,0.302583,0.519323,-0.02566,0.446269,0.330273,-0.106804,0,0,0,0,0,0,0,0,0,0,0,0,0,1,0
2422,'2025/06/30 16:36:15:193',104,-0.151335,-0.068126,-0.039422,-0.023005,0.035685,0.324921,0,0.120352,0.367377,0.428996,0.058706,0.379758,0.414518,-0.00167,0.302583,0.519323,-0.02566,0.446269,0.330273,-0.106804,0,0,0,0,0,0,0,0,0,0,0,0,0,1,0
2423,'2025/06/30 16:36:15:198',104,-0.151335,-0.068126,-0.039422,-0.023005,0.035685,0.324921,0,0.120352,0.367377,0.428996,0.058706,0.379758,0.414518,-0.00167,0.302583,0.519323,-0.02566,0.446269,0.330273,-0.106804,0,0,0,0,0,0,0,0,0,0,0,0,0,1,0
2424,'2025/06/30 16:36:15:204',104,-0.151335,-0.068126,-0.039422,-0.023005,0.035685,0.324921,0,0.120352,0.367377,0.428996,0.058706,0.379758,0.414518,-0.00167,0.302583,0.519323,-0.02566,0.446269,0.330273,-0.106804,0,0,0,0,0,0,0,0,0,0,0,0,0,1,0
2425,'2025/06/30 16:36:15:208',104,-0.151335,-0.068126,-0.039422,-0.023005,0.035685,0.324921,0,0.120352,0.367377,0.428996,0.058706,0.379758,0.414518,-0.00167,0.302583,0.519323,-0.02566,0.446269,0.330273,-0.106804,0,0,0,0,0,0,0,0,0,0,0,0,0,1,0
2426,'2025/06/30 16:36:15:214',104,-0.151335,-0.068126,-0.039422,-0.023005,0.035685,0.324921,0,0.120352,0.367377,0.428996,0.058706,0.379758,0.414518,-0.00167,0.302583,0.519323,-0.02566,0.446269,0.330273,-0.106804,0,0,0,0,0,0,0,0,0,0,0,0,0,1,0
2427,'2025/06/30 16:36:15:220',104,-0.151335,-0.068126,-0.039422,-0.023005,0.035685,0.324921,0,0.120352,0.367377,0.428996,0.058706,0.379758,0.414518,-0.00167,0.302583,0.519323,-0.02566,0.446269,0.330273,-0.106804,0,0,0,0,0,0,0,0,0,0,0,0,0,1,0
2428,'2025/06/30 16:36:15:225',104,-0.151335,-0.068126,-0.039422,-0.023005,0.035685,0.324921,0,0.120352,0.367377,0.428996,0.058706,0.379758,0.414518,-0.00167,0.302583,0.519323,-0.02566,0.446269,0.330273,-0.106804,0,0,0,0,0,0,0,0,0,0,0,0,0,1,0
2429,'2025/06/30 16:36:15:230',104,-0.151335,-0.068126,-0.039422,-0.023005,0.035685,0.324921,0,0.120352,0.367377,0.428996,0.058706,0.379758,0.414518,-0.00167,0.302583,0.519323,-0.02566,0.446269,0.330273,-0.106804,0,0,0,0,0,0,0,0,0,0,0,0,0,1,0
2430,'2025/06/30 16:36:15:236',104,-0.151335,-0.068126,-0.039422,-0.023005,0.035685,0.324921,0,0.120352,0.367377,0.428996,0.058706,0.379758,0.414518,-0.00167,0.302583,0.519323,-0.02566,0.446269,0.330273,-0.106804,0,0,0,0,0,0,0,0,0,0,0,0,0,1,0
2431,'2025/06/30 16:36:15:242',104,-0.151335,-0.068126,-0.039422,-0.023005,0.035685,0.324921,0,0.120352,0.367377,0.428996,0.058706,0.379758,0.414518,-0.00167,0.302583,0.519323,-0.02566,0.446269,0.330273,-0.106804,0,0,0,0,0,0,0,0,0,0,0,0,0,1,0
2432,'2025/06/30 16:36:15:248',104,-0.151335,-0.068126,-0.039422,-0.023005,0.035685,0.324921,0,0.120352,0.367377,0.428996,0.058706,0.379758,0.414518,-0.00167,0.302583,0.519323,-0.02566,0.446269,0.330273,-0.106804,0,0,0,0,0,0,0,0,0,0,0,0,0,1,0
2433,'2025/06/30 16:36:15:252',104,-0.151335,-0.068126,-0.039422,-0.023005,0.035685,0.324921,0,0.120352,0.367377,0.428996,0.058706,0.379758,0.414518,-0.00167,0.302583,0.519323,-0.02566,0.446269,0.330273,-0.106804,0,0,0,0,0,0,0,0,0,0,0,0,0,1,0
2434,'2025/06/30 16:36:15:258',104,-0.151335,-0.068126,-0.039422,-0.023005,0.035685,0.324921,0,0.120352,0.367377,0.428996,0.058706,0.379758,0.414518,-0.00167,0.302583,0.519323,-0.02566,0.446269,0.330273,-0.106804,0,0,0,0,0,0,0,0,0,0,0,0,0,1,0
2435,'2025/06/30 16:36:15:263',104,-0.151335,-0.068126,-0.039422,-0.023005,0.035685,0.324921,0,0.120352,0.367377,0.428996,0.058706,0.379758,0.414518,-0.00167,0.302583,0.519323,-0.02566,0.446269,0.330273,-0.106804,0,0,0,0,0,0,0,0,0,0,0,0,0,1,0
2436,'2025/06/30 16:36:15:269',104,-0.151335,-0.068126,-0.039422,-0.023005,0.035685,0.324921,0,0.120352,0.367377,0.428996,0.058706,0.379758,0.414518,-0.00167,0.302583,0.519323,-0.02566,0.446269,0.330273,-0.106804,0,0,0,0,0,0,0,0,0,0,0,0,0,1,0
2437,'2025/06/30 16:36:15:274',104,-0.151335,-0.068126,-0.039422,-0.023005,0.035685,0.324921,0,0.120352,0.367377,0.428996,0.058706,0.379758,0.414518,-0.00167,0.302583,0.519323,-0.02566,0.446269,0.330273,-0.106804,0,0,0,0,0,0,0,0,0,0,0,0,0,1,0
2438,'2025/06/30 16:36:15:279',104,-0.151335,-0.068126,-0.039422,-0.023005,0.035685,0.324921,0,0.120352,0.367377,0.428996,0.058706,0.379758,0.414518,-0.00167,0.302583,0.519323,-0.02566,0.446269,0.330273,-0.106804,0,0,0,0,0,0,0,0,0,0,0,0,0,1,0
2439,'2025/06/30 16:36:15:284',104,-0.151335,-0.068126,-0.039422,-0.023005,0.035685,0.324921,0,0.120352,0.367377,0.428996,0.058706,0.379758,0.414518,-0.00167,0.302583,0.519323,-0.02566,0.446269,0.330273,-0.106804,0,0,0,0,0,0,0,0,0,0,0,0,0,1,0
2440,'2025/06/30 16:36:32:512',105,-0.109221,-0.068126,-0.039422,-0.023005,0.035685,0.345051,0,0.076927,0.367377,0.428996,0.058706,0.379758,0.414518,-0.00167,0.302583,0.519323,-0.02566,0.446269,0.330273,-0.106804,0,0,0,0,0,0,0,0,0,0,0,0,0,1,0
2441,'2025/06/30 16:36:32:517',105,-0.109221,-0.068126,-0.039422,-0.023005,0.035685,0.345051,0,0.076927,0.367377,0.428996,0.058706,0.379758,0.414518,-0.00167,0.302583,0.519323,-0.02566,0.446269,0.330273,-0.106804,0,0,0,0,0,0,0,0,0,0,0,0,0,1,0
2442,'2025/06/30 16:36:32:521',105,-0.109221,-0.068126,-0.039422,-0.023005,0.035685,0.345051,0,0.076927,0.367377,0.428996,0.058706,0.379758,0.414518,-0.00167,0.302583,0.519323,-0.02566,0.446269,0.330273,-0.106804,0,0,0,0,0,0,0,0,0,0,0,0,0,1,0
2443,'2025/06/30 16:36:32:527',105,-0.109221,-0.068126,-0.039422,-0.023005,0.035685,0.345051,0,0.076927,0.367377,0.428996,0.058706,0.379758,0.414518,-0.00167,0.302583,0.519323,-0.02566,0.446269,0.330273,-0.106804,0,0,0,0,0,0,0,0,0,0,0,0,0,1,0
2444,'2025/06/30 16:36:32:532',105,-0.109221,-0.068126,-0.039422,-0.023005,0.035685,0.345051,0,0.076927,0.367377,0.428996,0.058706,0.379758,0.414518,-0.00167,0.302583,0.519323,-0.02566,0.446269,0.330273,-0.106804,0,0,0,0,0,0,0,0,0,0,0,0,0,1,0
2445,'2025/06/30 16:36:32:537',105,-0.109221,-0.068126,-0.039422,-0.023005,0.035685,0.345051,0,0.076927,0.367377,0.428996,0.058706,0.379758,0.414518,-0.00167,0.302583,0.519323,-0.02566,0.446269,0.330273,-0.106804,0,0,0,0,0,0,0,0,0,0,0,0,0,1,0
2446,'2025/06/30 16:36:32:541',105,-0.109221,-0.068126,-0.039422,-0.023005,0.035685,0.345051,0,0.076927,0.367377,0.428996,0.058706,0.379758,0.414518,-0.00167,0.302583,0.519323,-0.02566,0.446269,0.330273,-0.106804,0,0,0,0,0,0,0,0,0,0,0,0,0,1,0
2447,'2025/06/30 16:36:32:546',105,-0.109221,-0.068126,-0.039422,-0.023005,0.035685,0.345051,0,0.076927,0.367377,0.428996,0.058706,0.379758,0.414518,-0.00167,0.302583,0.519323,-0.02566,0.446269,0.330273,-0.106804,0,0,0,0,0,0,0,0,0,0,0,0,0,1,0
2448,'2025/06/30 16:36:32:551',105,-0.109221,-0.068126,-0.039422,-0.023005,0.035685,0.345051,0,0.076927,0.367377,0.428996,0.058706,0.379758,0.414518,-0.00167,0.302583,0.519323,-0.02566,0.446269,0.330273,-0.106804,0,0,0,0,0,0,0,0,0,0,0,0,0,1,0
2449,'2025/06/30 16:36:32:557',105,-0.109221,-0.068126,-0.039422,-0.023005,0.035685,0.345051,0,0.076927,0.367377,0.428996,0.058706,0.379758,0.414518,-0.00167,0.302583,0.519323,-0.02566,0.446269,0.330273,-0.106804,0,0,0,0,0,0,0,0,0,0,0,0,0,1,0
2450,'2025/06/30 16:36:32:563',105,-0.109221,-0.068126,-0.039422,-0.023005,0.035685,0.345051,0,0.076927,0.367377,0.428996,0.058706,0.379758,0.414518,-0.00167,0.302583,0.519323,-0.02566,0.446269,0.330273,-0.106804,0,0,0,0,0,0,0,0,0,0,0,0,0,1,0
2451,'2025/06/30 16:36:32:569',105,-0.109221,-0.068126,-0.039422,-0.023005,0.035685,0.345051,0,0.076927,0.367377,0.428996,0.058706,0.379758,0.414518,-0.00167,0.302583,0.519323,-0.02566,0.446269,0.330273,-0.106804,0,0,0,0,0,0,0,0,0,0,0,0,0,1,0
2452,'2025/06/30 16:36:32:573',105,-0.109221,-0.068126,-0.039422,-0.023005,0.035685,0.345051,0,0.076927,0.367377,0.428996,0.058706,0.379758,0.414518,-0.00167,0.302583,0.519323,-0.02566,0.446269,0.330273,-0.106804,0,0,0,0,0,0,0,0,0,0,0,0,0,1,0
2453,'2025/06/30 16:36:32:579',105,-0.109221,-0.068126,-0.039422,-0.023005,0.035685,0.345051,0,0.076927,0.367377,0.428996,0.058706,0.379758,0.414518,-0.00167,0.302583,0.519323,-0.02566,0.446269,0.330273,-0.106804,0,0,0,0,0,0,0,0,0,0,0,0,0,1,0
2454,'2025/06/30 16:36:32:584',105,-0.109221,-0.068126,-0.039422,-0.023005,0.035685,0.345051,0,0.076927,0.367377,0.428996,0.058706,0.379758,0.414518,-0.00167,0.302583,0.519323,-0.02566,0.446269,0.330273,-0.106804,0,0,0,0,0,0,0,0,0,0,0,0,0,1,0
2455,'2025/06/30 16:36:32:590',105,-0.109221,-0.068126,-0.039422,-0.023005,0.035685,0.345051,0,0.076927,0.367377,0.428996,0.058706,0.379758,0.414518,-0.00167,0.302583,0.519323,-0.02566,0.446269,0.330273,-0.106804,0,0,0,0,0,0,0,0,0,0,0,0,0,1,0
2456,'2025/06/30 16:36:32:595',105,-0.109221,-0.068126,-0.039422,-0.023005,0.035685,0.345051,0,0.076927,0.367377,0.428996,0.058706,0.379758,0.414518,-0.00167,0.302583,0.519323,-0.02566,0.446269,0.330273,-0.106804,0,0,0,0,0,0,0,0,0,0,0,0,0,1,0
2457,'2025/06/30 16:36:32:599',105,-0.109221,-0.068126,-0.039422,-0.023005,0.035685,0.345051,0,0.076927,0.367377,0.428996,0.058706,0.379758,0.414518,-0.00167,0.302583,0.519323,-0.02566,0.446269,0.330273,-0.106804,0,0,0,0,0,0,0,0,0,0,0,0,0,1,0
2458,'2025/06/30 16:36:32:605',105,-0.109221,-0.068126,-0.039422,-0.023005,0.035685,0.345051,0,0.076927,0.367377,0.428996,0.058706,0.379758,0.414518,-0.00167,0.302583,0.519323,-0.02566,0.446269,0.330273,-0.106804,0,0,0,0,0,0,0,0,0,0,0,0,0,1,0
2459,'2025/06/30 16:36:32:610',105,-0.109221,-0.068126,-0.039422,-0.023005,0.035685,0.345051,0,0.076927,0.367377,0.428996,0.058706,0.379758,0.414518,-0.00167,0.302583,0.519323,-0.02566,0.446269,0.330273,-0.106804,0,0,0,0,0,0,0,0,0,0,0,0,0,1,0
2460,'2025/06/30 16:36:32:616',105,-0.109221,-0.068126,-0.039422,-0.023005,0.035685,0.345051,0,0.076927,0.367377,0.428996,0.058706,0.379758,0.414518,-0.00167,0.302583,0.519323,-0.02566,0.446269,0.330273,-0.106804,0,0,0,0,0,0,0,0,0,0,0,0,0,1,0
2461,'2025/06/30 16:36:32:621',105,-0.109221,-0.068126,-0.039422,-0.023005,0.035685,0.345051,0,0.076927,0.367377,0.428996,0.058706,0.379758,0.414518,-0.00167,0.302583,0.519323,-0.02566,0.446269,0.330273,-0.106804,0,0,0,0,0,0,0,0,0,0,0,0,0,1,0
2462,'2025/06/30 16:36:32:627',105,-0.109221,-0.068126,-0.039422,-0.023005,0.035685,0.345051,0,0.076927,0.367377,0.428996,0.058706,0.379758,0.414518,-0.00167,0.302583,0.519323,-0.02566,0.446269,0.330273,-0.106804,0,0,0,0,0,0,0,0,0,0,0,0,0,1,0
2463,'2025/06/30 16:36:32:633',105,-0.109221,-0.068126,-0.039422,-0.023005,0.035685,0.345051,0,0.076927,0.367377,0.428996,0.058706,0.379758,0.414518,-0.00167,0.302583,0.519323,-0.02566,0.446269,0.330273,-0.106804,0,0,0,0,0,0,0,0,0,0,0,0,0,1,0
2464,'2025/06/30 16:36:32:638',105,-0.109221,-0.068126,-0.039422,-0.023005,0.035685,0.345051,0,0.076927,0.367377,0.428996,0.058706,0.379758,0.414518,-0.00167,0.302583,0.519323,-0.02566,0.446269,0.330273,-0.106804,0,0,0,0,0,0,0,0,0,0,0,0,0,1,0
2465,'2025/06/30 16:36:32:645',105,-0.109221,-0.068126,-0.039422,-0.023005,0.035685,0.345051,0,0.076927,0.367377,0.428996,0.058706,0.379758,0.414518,-0.00167,0.302583,0.519323,-0.02566,0.446269,0.330273,-0.106804,0,0,0,0,0,0,0,0,0,0,0,0,0,1,0
2466,'2025/06/30 16:36:32:651',105,-0.109221,-0.068126,-0.039422,-0.023005,0.035685,0.345051,0,0.076927,0.367377,0.428996,0.058706,0.379758,0.414518,-0.00167,0.302583,0.519323,-0.02566,0.446269,0.330273,-0.106804,0,0,0,0,0,0,0,0,0,0,0,0,0,1,0
2467,'2025/06/30 16:37:15:637',106,-0.106334,-0.051056,-0.019293,-0.021368,0.034146,0.273494,0,0.078948,0.236257,0.544364,0.060706,0.245685,0.579259,-0.025505,0.262935,0.549531,-0.026408,0.231576,0.583851,-0.130734,0,0,0,0,0,0,0,0,0,0,0,0,0,1,0
2468,'2025/06/30 16:37:15:642',106,-0.106334,-0.051056,-0.019293,-0.021368,0.034146,0.273494,0,0.078948,0.236257,0.544364,0.060706,0.245685,0.579259,-0.025505,0.262935,0.549531,-0.026408,0.231576,0.583851,-0.130734,0,0,0,0,0,0,0,0,0,0,0,0,0,1,0
2469,'2025/06/30 16:37:15:647',106,-0.106334,-0.051056,-0.019293,-0.021368,0.034146,0.273494,0,0.078948,0.236257,0.544364,0.060706,0.245685,0.579259,-0.025505,0.262935,0.549531,-0.026408,0.231576,0.583851,-0.130734,0,0,0,0,0,0,0,0,0,0,0,0,0,1,0
2470,'2025/06/30 16:37:15:652',106,-0.106334,-0.051056,-0.019293,-0.021368,0.034146,0.273494,0,0.078948,0.236257,0.544364,0.060706,0.245685,0.579259,-0.025505,0.262935,0.549531,-0.026408,0.231576,0.583851,-0.130734,0,0,0,0,0,0,0,0,0,0,0,0,0,1,0
2471,'2025/06/30 16:37:15:657',106,-0.106334,-0.051056,-0.019293,-0.021368,0.034146,0.273494,0,0.078948,0.236257,0.544364,0.060706,0.245685,0.579259,-0.025505,0.262935,0.549531,-0.026408,0.231576,0.583851,-0.130734,0,0,0,0,0,0,0,0,0,0,0,0,0,1,0
2472,'2025/06/30 16:37:15:663',106,-0.106334,-0.051056,-0.019293,-0.021368,0.034146,0.273494,0,0.078948,0.236257,0.544364,0.060706,0.245685,0.579259,-0.025505,0.262935,0.549531,-0.026408,0.231576,0.583851,-0.130734,0,0,0,0,0,0,0,0,0,0,0,0,0,1,0
2473,'2025/06/30 16:37:15:669',106,-0.106334,-0.051056,-0.019293,-0.021368,0.034146,0.273494,0,0.078948,0.236257,0.544364,0.060706,0.245685,0.579259,-0.025505,0.262935,0.549531,-0.026408,0.231576,0.583851,-0.130734,0,0,0,0,0,0,0,0,0,0,0,0,0,1,0
2474,'2025/06/30 16:37:15:675',106,-0.106334,-0.051056,-0.019293,-0.021368,0.034146,0.273494,0,0.078948,0.236257,0.544364,0.060706,0.245685,0.579259,-0.025505,0.262935,0.549531,-0.026408,0.231576,0.583851,-0.130734,0,0,0,0,0,0,0,0,0,0,0,0,0,1,0
2475,'2025/06/30 16:37:15:681',106,-0.106334,-0.051056,-0.019293,-0.021368,0.034146,0.273494,0,0.078948,0.236257,0.544364,0.060706,0.245685,0.579259,-0.025505,0.262935,0.549531,-0.026408,0.231576,0.583851,-0.130734,0,0,0,0,0,0,0,0,0,0,0,0,0,1,0
2476,'2025/06/30 16:37:15:686',106,-0.106334,-0.051056,-0.019293,-0.021368,0.034146,0.273494,0,0.078948,0.236257,0.544364,0.060706,0.245685,0.579259,-0.025505,0.262935,0.549531,-0.026408,0.231576,0.583851,-0.130734,0,0,0,0,0,0,0,0,0,0,0,0,0,1,0
2477,'2025/06/30 16:37:15:694',106,-0.106334,-0.051056,-0.019293,-0.021368,0.034146,0.273494,0,0.078948,0.236257,0.544364,0.060706,0.245685,0.579259,-0.025505,0.262935,0.549531,-0.026408,0.231576,0.583851,-0.130734,0,0,0,0,0,0,0,0,0,0,0,0,0,1,0
2478,'2025/06/30 16:37:15:699',106,-0.106334,-0.051056,-0.019293,-0.021368,0.034146,0.273494,0,0.078948,0.236257,0.544364,0.060706,0.245685,0.579259,-0.025505,0.262935,0.549531,-0.026408,0.231576,0.583851,-0.130734,0,0,0,0,0,0,0,0,0,0,0,0,0,1,0
2479,'2025/06/30 16:37:15:704',106,-0.106334,-0.051056,-0.019293,-0.021368,0.034146,0.273494,0,0.078948,0.236257,0.544364,0.060706,0.245685,0.579259,-0.025505,0.262935,0.549531,-0.026408,0.231576,0.583851,-0.130734,0,0,0,0,0,0,0,0,0,0,0,0,0,1,0
2480,'2025/06/30 16:37:15:711',106,-0.106334,-0.051056,-0.019293,-0.021368,0.034146,0.273494,0,0.078948,0.236257,0.544364,0.060706,0.245685,0.579259,-0.025505,0.262935,0.549531,-0.026408,0.231576,0.583851,-0.130734,0,0,0,0,0,0,0,0,0,0,0,0,0,1,0
2481,'2025/06/30 16:37:15:716',106,-0.106334,-0.051056,-0.019293,-0.021368,0.034146,0.273494,0,0.078948,0.236257,0.544364,0.060706,0.245685,0.579259,-0.025505,0.262935,0.549531,-0.026408,0.231576,0.583851,-0.130734,0,0,0,0,0,0,0,0,0,0,0,0,0,1,0
2482,'2025/06/30 16:37:15:721',106,-0.106334,-0.051056,-0.019293,-0.021368,0.034146,0.273494,0,0.078948,0.236257,0.544364,0.060706,0.245685,0.579259,-0.025505,0.262935,0.549531,-0.026408,0.231576,0.583851,-0.130734,0,0,0,0,0,0,0,0,0,0,0,0,0,1,0
2483,'2025/06/30 16:37:15:726',106,-0.106334,-0.051056,-0.019293,-0.021368,0.034146,0.273494,0,0.078948,0.236257,0.544364,0.060706,0.245685,0.579259,-0.025505,0.262935,0.549531,-0.026408,0.231576,0.583851,-0.130734,0,0,0,0,0,0,0,0,0,0,0,0,0,1,0
2484,'2025/06/30 16:37:15:732',106,-0.106334,-0.051056,-0.019293,-0.021368,0.034146,0.273494,0,0.078948,0.236257,0.544364,0.060706,0.245685,0.579259,-0.025505,0.262935,0.549531,-0.026408,0.231576,0.583851,-0.130734,0,0,0,0,0,0,0,0,0,0,0,0,0,1,0
2485,'2025/06/30 16:37:15:739',106,-0.106334,-0.051056,-0.019293,-0.021368,0.034146,0.273494,0,0.078948,0.236257,0.544364,0.060706,0.245685,0.579259,-0.025505,0.262935,0.549531,-0.026408,0.231576,0.583851,-0.130734,0,0,0,0,0,0,0,0,0,0,0,0,0,1,0
2486,'2025/06/30 16:37:15:743',106,-0.106334,-0.051056,-0.019293,-0.021368,0.034146,0.273494,0,0.078948,0.236257,0.544364,0.060706,0.245685,0.579259,-0.025505,0.262935,0.549531,-0.026408,0.231576,0.583851,-0.130734,0,0,0,0,0,0,0,0,0,0,0,0,0,1,0
2487,'2025/06/30 16:37:15:748',106,-0.106334,-0.051056,-0.019293,-0.021368,0.034146,0.273494,0,0.078948,0.236257,0.544364,0.060706,0.245685,0.579259,-0.025505,0.262935,0.549531,-0.026408,0.231576,0.583851,-0.130734,0,0,0,0,0,0,0,0,0,0,0,0,0,1,0
2488,'2025/06/30 16:37:15:753',106,-0.106334,-0.051056,-0.019293,-0.021368,0.034146,0.273494,0,0.078948,0.236257,0.544364,0.060706,0.245685,0.579259,-0.025505,0.262935,0.549531,-0.026408,0.231576,0.583851,-0.130734,0,0,0,0,0,0,0,0,0,0,0,0,0,1,0
2489,'2025/06/30 16:37:15:758',106,-0.106334,-0.051056,-0.019293,-0.021368,0.034146,0.273494,0,0.078948,0.236257,0.544364,0.060706,0.245685,0.579259,-0.025505,0.262935,0.549531,-0.026408,0.231576,0.583851,-0.130734,0,0,0,0,0,0,0,0,0,0,0,0,0,1,0
2490,'2025/06/30 16:37:15:765',106,-0.106334,-0.051056,-0.019293,-0.021368,0.034146,0.273494,0,0.078948,0.236257,0.544364,0.060706,0.245685,0.579259,-0.025505,0.262935,0.549531,-0.026408,0.231576,0.583851,-0.130734,0,0,0,0,0,0,0,0,0,0,0,0,0,1,0
2491,'2025/06/30 16:37:15:769',106,-0.106334,-0.051056,-0.019293,-0.021368,0.034146,0.273494,0,0.078948,0.236257,0.544364,0.060706,0.245685,0.579259,-0.025505,0.262935,0.549531,-0.026408,0.231576,0.583851,-0.130734,0,0,0,0,0,0,0,0,0,0,0,0,0,1,0
2492,'2025/06/30 16:37:15:774',106,-0.106334,-0.051056,-0.019293,-0.021368,0.034146,0.273494,0,0.078948,0.236257,0.544364,0.060706,0.245685,0.579259,-0.025505,0.262935,0.549531,-0.026408,0.231576,0.583851,-0.130734,0,0,0,0,0,0,0,0,0,0,0,0,0,1,0
2493,'2025/06/30 16:38:16:222',107,0.381911,-0.03774,-0.058783,-0.062527,-0.061017,0.278004,0,-0.407664,0.581609,0.794646,0.000332,0.607872,0.788585,-0.002037,0.595467,0.821521,-0.001354,0.640369,0.815348,-0.011517,0.015758,0.991317,-0.002249,0,0,0,0,0,0,0,0,0,0,0,1
2494,'2025/06/30 16:38:16:228',107,0.381911,-0.03774,-0.058783,-0.062527,-0.061017,0.278004,0,-0.407664,0.581609,0.794646,0.000332,0.607872,0.788585,-0.002037,0.595467,0.821521,-0.001354,0.640369,0.815348,-0.011517,0.015758,0.991317,-0.002249,0,0,0,0,0,0,0,0,0,0,0,1
2495,'2025/06/30 16:38:16:233',107,0.381911,-0.03774,-0.058783,-0.062527,-0.061017,0.278004,0,-0.407664,0.581609,0.794646,0.000332,0.607872,0.788585,-0.002037,0.595467,0.821521,-0.001354,0.640369,0.815348,-0.011517,0.015758,0.991317,-0.002249,0,0,0,0,0,0,0,0,0,0,0,1
2496,'2025/06/30 16:38:16:238',107,0.381911,-0.03774,-0.058783,-0.062527,-0.061017,0.278004,0,-0.407664,0.581609,0.794646,0.000332,0.607872,0.788585,-0.002037,0.595467,0.821521,-0.001354,0.640369,0.815348,-0.011517,0.015758,0.991317,-0.002249,0,0,0,0,0,0,0,0,0,0,0,1
2497,'2025/06/30 16:38:16:244',107,0.381911,-0.03774,-0.058783,-0.062527,-0.061017,0.278004,0,-0.407664,0.581609,0.794646,0.000332,0.607872,0.788585,-0.002037,0.595467,0.821521,-0.001354,0.640369,0.815348,-0.011517,0.015758,0.991317,-0.002249,0,0,0,0,0,0,0,0,0,0,0,1
2498,'2025/06/30 16:38:16:249',107,0.381911,-0.03774,-0.058783,-0.062527,-0.061017,0.278004,0,-0.407664,0.581609,0.794646,0.000332,0.607872,0.788585,-0.002037,0.595467,0.821521,-0.001354,0.640369,0.815348,-0.011517,0.015758,0.991317,-0.002249,0,0,0,0,0,0,0,0,0,0,0,1
2499,'2025/06/30 16:38:16:254',107,0.381911,-0.03774,-0.058783,-0.062527,-0.061017,0.278004,0,-0.407664,0.581609,0.794646,0.000332,0.607872,0.788585,-0.002037,0.595467,0.821521,-0.001354,0.640369,0.815348,-0.011517,0.015758,0.991317,-0.002249,0,0,0,0,0,0,0,0,0,0,0,1
2500,'2025/06/30 16:38:16:261',107,0.381911,-0.03774,-0.058783,-0.062527,-0.061017,0.278004,0,-0.407664,0.581609,0.794646,0.000332,0.607872,0.788585,-0.002037,0.595467,0.821521,-0.001354,0.640369,0.815348,-0.011517,0.015758,0.991317,-0.002249,0,0,0,0,0,0,0,0,0,0,0,1
2501,'2025/06/30 16:38:16:266',107,0.381911,-0.03774,-0.058783,-0.062527,-0.061017,0.278004,0,-0.407664,0.581609,0.794646,0.000332,0.607872,0.788585,-0.002037,0.595467,0.821521,-0.001354,0.640369,0.815348,-0.011517,0.015758,0.991317,-0.002249,0,0,0,0,0,0,0,0,0,0,0,1
2502,'2025/06/30 16:38:16:273',107,0.381911,-0.03774,-0.058783,-0.062527,-0.061017,0.278004,0,-0.407664,0.581609,0.794646,0.000332,0.607872,0.788585,-0.002037,0.595467,0.821521,-0.001354,0.640369,0.815348,-0.011517,0.015758,0.991317,-0.002249,0,0,0,0,0,0,0,0,0,0,0,1
2503,'2025/06/30 16:38:16:278',107,0.381911,-0.03774,-0.058783,-0.062527,-0.061017,0.278004,0,-0.407664,0.581609,0.794646,0.000332,0.607872,0.788585,-0.002037,0.595467,0.821521,-0.001354,0.640369,0.815348,-0.011517,0.015758,0.991317,-0.002249,0,0,0,0,0,0,0,0,0,0,0,1
2504,'2025/06/30 16:38:16:284',107,0.381911,-0.03774,-0.058783,-0.062527,-0.061017,0.278004,0,-0.407664,0.581609,0.794646,0.000332,0.607872,0.788585,-0.002037,0.595467,0.821521,-0.001354,0.640369,0.815348,-0.011517,0.015758,0.991317,-0.002249,0,0,0,0,0,0,0,0,0,0,0,1
2505,'2025/06/30 16:38:16:290',107,0.381911,-0.03774,-0.058783,-0.062527,-0.061017,0.278004,0,-0.407664,0.581609,0.794646,0.000332,0.607872,0.788585,-0.002037,0.595467,0.821521,-0.001354,0.640369,0.815348,-0.011517,0.015758,0.991317,-0.002249,0,0,0,0,0,0,0,0,0,0,0,1
2506,'2025/06/30 16:38:16:295',107,0.381911,-0.03774,-0.058783,-0.062527,-0.061017,0.278004,0,-0.407664,0.581609,0.794646,0.000332,0.607872,0.788585,-0.002037,0.595467,0.821521,-0.001354,0.640369,0.815348,-0.011517,0.015758,0.991317,-0.002249,0,0,0,0,0,0,0,0,0,0,0,1
2507,'2025/06/30 16:38:16:302',107,0.381911,-0.03774,-0.058783,-0.062527,-0.061017,0.278004,0,-0.407664,0.581609,0.794646,0.000332,0.607872,0.788585,-0.002037,0.595467,0.821521,-0.001354,0.640369,0.815348,-0.011517,0.015758,0.991317,-0.002249,0,0,0,0,0,0,0,0,0,0,0,1
2508,'2025/06/30 16:38:16:308',107,0.381911,-0.03774,-0.058783,-0.062527,-0.061017,0.278004,0,-0.407664,0.581609,0.794646,0.000332,0.607872,0.788585,-0.002037,0.595467,0.821521,-0.001354,0.640369,0.815348,-0.011517,0.015758,0.991317,-0.002249,0,0,0,0,0,0,0,0,0,0,0,1
2509,'2025/06/30 16:38:16:313',107,0.381911,-0.03774,-0.058783,-0.062527,-0.061017,0.278004,0,-0.407664,0.581609,0.794646,0.000332,0.607872,0.788585,-0.002037,0.595467,0.821521,-0.001354,0.640369,0.815348,-0.011517,0.015758,0.991317,-0.002249,0,0,0,0,0,0,0,0,0,0,0,1
2510,'2025/06/30 16:38:16:319',107,0.381911,-0.03774,-0.058783,-0.062527,-0.061017,0.278004,0,-0.407664,0.581609,0.794646,0.000332,0.607872,0.788585,-0.002037,0.595467,0.821521,-0.001354,0.640369,0.815348,-0.011517,0.015758,0.991317,-0.002249,0,0,0,0,0,0,0,0,0,0,0,1
2511,'2025/06/30 16:38:16:324',107,0.381911,-0.03774,-0.058783,-0.062527,-0.061017,0.278004,0,-0.407664,0.581609,0.794646,0.000332,0.607872,0.788585,-0.002037,0.595467,0.821521,-0.001354,0.640369,0.815348,-0.011517,0.015758,0.991317,-0.002249,0,0,0,0,0,0,0,0,0,0,0,1
2512,'2025/06/30 16:38:16:330',107,0.381911,-0.03774,-0.058783,-0.062527,-0.061017,0.278004,0,-0.407664,0.581609,0.794646,0.000332,0.607872,0.788585,-0.002037,0.595467,0.821521,-0.001354,0.640369,0.815348,-0.011517,0.015758,0.991317,-0.002249,0,0,0,0,0,0,0,0,0,0,0,1
2513,'2025/06/30 16:38:16:336',107,0.381911,-0.03774,-0.058783,-0.062527,-0.061017,0.278004,0,-0.407664,0.581609,0.794646,0.000332,0.607872,0.788585,-0.002037,0.595467,0.821521,-0.001354,0.640369,0.815348,-0.011517,0.015758,0.991317,-0.002249,0,0,0,0,0,0,0,0,0,0,0,1
2514,'2025/06/30 16:38:16:343',107,0.381911,-0.03774,-0.058783,-0.062527,-0.061017,0.278004,0,-0.407664,0.581609,0.794646,0.000332,0.607872,0.788585,-0.002037,0.595467,0.821521,-0.001354,0.640369,0.815348,-0.011517,0.015758,0.991317,-0.002249,0,0,0,0,0,0,0,0,0,0,0,1
2515,'2025/06/30 16:38:16:348',107,0.381911,-0.03774,-0.058783,-0.062527,-0.061017,0.278004,0,-0.407664,0.581609,0.794646,0.000332,0.607872,0.788585,-0.002037,0.595467,0.821521,-0.001354,0.640369,0.815348,-0.011517,0.015758,0.991317,-0.002249,0,0,0,0,0,0,0,0,0,0,0,1
2516,'2025/06/30 16:38:16:354',107,0.381911,-0.03774,-0.058783,-0.062527,-0.061017,0.278004,0,-0.407664,0.581609,0.794646,0.000332,0.607872,0.788585,-0.002037,0.595467,0.821521,-0.001354,0.640369,0.815348,-0.011517,0.015758,0.991317,-0.002249,0,0,0,0,0,0,0,0,0,0,0,1
2517,'2025/06/30 16:38:16:360',107,0.381911,-0.03774,-0.058783,-0.062527,-0.061017,0.278004,0,-0.407664,0.581609,0.794646,0.000332,0.607872,0.788585,-0.002037,0.595467,0.821521,-0.001354,0.640369,0.815348,-0.011517,0.015758,0.991317,-0.002249,0,0,0,0,0,0,0,0,0,0,0,1
2518,'2025/06/30 16:38:16:366',107,0.381911,-0.03774,-0.058783,-0.062527,-0.061017,0.278004,0,-0.407664,0.581609,0.794646,0.000332,0.607872,0.788585,-0.002037,0.595467,0.821521,-0.001354,0.640369,0.815348,-0.011517,0.015758,0.991317,-0.002249,0,0,0,0,0,0,0,0,0,0,0,1
2519,'2025/06/30 16:38:16:371',107,0.381911,-0.03774,-0.058783,-0.062527,-0.061017,0.278004,0,-0.407664,0.581609,0.794646,0.000332,0.607872,0.788585,-0.002037,0.595467,0.821521,-0.001354,0.640369,0.815348,-0.011517,0.015758,0.991317,-0.002249,0,0,0,0,0,0,0,0,0,0,0,1
2520,'2025/06/30 16:38:16:376',107,0.381911,-0.03774,-0.058783,-0.062527,-0.061017,0.278004,0,-0.407664,0.581609,0.794646,0.000332,0.607872,0.788585,-0.002037,0.595467,0.821521,-0.001354,0.640369,0.815348,-0.011517,0.015758,0.991317,-0.002249,0,0,0,0,0,0,0,0,0,0,0,1
2521,'2025/06/30 16:38:16:383',107,0.381911,-0.03774,-0.058783,-0.062527,-0.061017,0.278004,0,-0.407664,0.581609,0.794646,0.000332,0.607872,0.788585,-0.002037,0.595467,0.821521,-0.001354,0.640369,0.815348,-0.011517,0.015758,0.991317,-0.002249,0,0,0,0,0,0,0,0,0,0,0,1
2522,'2025/06/30 16:38:34:347',108,0.44207,-0.03774,-0.058783,-0.062527,-0.061017,0.302924,0,-0.46913,0.581609,0.794646,0.000332,0.607872,0.788585,-0.002037,0.595467,0.821521,-0.001354,0.640369,0.815348,-0.011517,0.015758,0.991317,-0.002249,0,0,0,0,0,0,0,0,0,0,0,1
2523,'2025/06/30 16:38:34:353',108,0.44207,-0.03774,-0.058783,-0.062527,-0.061017,0.302924,0,-0.46913,0.581609,0.794646,0.000332,0.607872,0.788585,-0.002037,0.595467,0.821521,-0.001354,0.640369,0.815348,-0.011517,0.015758,0.991317,-0.002249,0,0,0,0,0,0,0,0,0,0,0,1
2524,'2025/06/30 16:38:34:359',108,0.44207,-0.03774,-0.058783,-0.062527,-0.061017,0.302924,0,-0.46913,0.581609,0.794646,0.000332,0.607872,0.788585,-0.002037,0.595467,0.821521,-0.001354,0.640369,0.815348,-0.011517,0.015758,0.991317,-0.002249,0,0,0,0,0,0,0,0,0,0,0,1
2525,'2025/06/30 16:38:34:363',108,0.44207,-0.03774,-0.058783,-0.062527,-0.061017,0.302924,0,-0.46913,0.581609,0.794646,0.000332,0.607872,0.788585,-0.002037,0.595467,0.821521,-0.001354,0.640369,0.815348,-0.011517,0.015758,0.991317,-0.002249,0,0,0,0,0,0,0,0,0,0,0,1
2526,'2025/06/30 16:38:34:369',108,0.44207,-0.03774,-0.058783,-0.062527,-0.061017,0.302924,0,-0.46913,0.581609,0.794646,0.000332,0.607872,0.788585,-0.002037,0.595467,0.821521,-0.001354,0.640369,0.815348,-0.011517,0.015758,0.991317,-0.002249,0,0,0,0,0,0,0,0,0,0,0,1
2527,'2025/06/30 16:38:34:374',108,0.44207,-0.03774,-0.058783,-0.062527,-0.061017,0.302924,0,-0.46913,0.581609,0.794646,0.000332,0.607872,0.788585,-0.002037,0.595467,0.821521,-0.001354,0.640369,0.815348,-0.011517,0.015758,0.991317,-0.002249,0,0,0,0,0,0,0,0,0,0,0,1
2528,'2025/06/30 16:38:34:380',108,0.44207,-0.03774,-0.058783,-0.062527,-0.061017,0.302924,0,-0.46913,0.581609,0.794646,0.000332,0.607872,0.788585,-0.002037,0.595467,0.821521,-0.001354,0.640369,0.815348,-0.011517,0.015758,0.991317,-0.002249,0,0,0,0,0,0,0,0,0,0,0,1
2529,'2025/06/30 16:38:34:386',108,0.44207,-0.03774,-0.058783,-0.062527,-0.061017,0.302924,0,-0.46913,0.581609,0.794646,0.000332,0.607872,0.788585,-0.002037,0.595467,0.821521,-0.001354,0.640369,0.815348,-0.011517,0.015758,0.991317,-0.002249,0,0,0,0,0,0,0,0,0,0,0,1
2530,'2025/06/30 16:38:34:392',108,0.44207,-0.03774,-0.058783,-0.062527,-0.061017,0.302924,0,-0.46913,0.581609,0.794646,0.000332,0.607872,0.788585,-0.002037,0.595467,0.821521,-0.001354,0.640369,0.815348,-0.011517,0.015758,0.991317,-0.002249,0,0,0,0,0,0,0,0,0,0,0,1
2531,'2025/06/30 16:38:34:397',108,0.44207,-0.03774,-0.058783,-0.062527,-0.061017,0.302924,0,-0.46913,0.581609,0.794646,0.000332,0.607872,0.788585,-0.002037,0.595467,0.821521,-0.001354,0.640369,0.815348,-0.011517,0.015758,0.991317,-0.002249,0,0,0,0,0,0,0,0,0,0,0,1
2532,'2025/06/30 16:38:34:403',108,0.44207,-0.03774,-0.058783,-0.062527,-0.061017,0.302924,0,-0.46913,0.581609,0.794646,0.000332,0.607872,0.788585,-0.002037,0.595467,0.821521,-0.001354,0.640369,0.815348,-0.011517,0.015758,0.991317,-0.002249,0,0,0,0,0,0,0,0,0,0,0,1
2533,'2025/06/30 16:38:34:409',108,0.44207,-0.03774,-0.058783,-0.062527,-0.061017,0.302924,0,-0.46913,0.581609,0.794646,0.000332,0.607872,0.788585,-0.002037,0.595467,0.821521,-0.001354,0.640369,0.815348,-0.011517,0.015758,0.991317,-0.002249,0,0,0,0,0,0,0,0,0,0,0,1
2534,'2025/06/30 16:38:34:415',108,0.44207,-0.03774,-0.058783,-0.062527,-0.061017,0.302924,0,-0.46913,0.581609,0.794646,0.000332,0.607872,0.788585,-0.002037,0.595467,0.821521,-0.001354,0.640369,0.815348,-0.011517,0.015758,0.991317,-0.002249,0,0,0,0,0,0,0,0,0,0,0,1
2535,'2025/06/30 16:38:34:422',108,0.44207,-0.03774,-0.058783,-0.062527,-0.061017,0.302924,0,-0.46913,0.581609,0.794646,0.000332,0.607872,0.788585,-0.002037,0.595467,0.821521,-0.001354,0.640369,0.815348,-0.011517,0.015758,0.991317,-0.002249,0,0,0,0,0,0,0,0,0,0,0,1
2536,'2025/06/30 16:38:34:428',108,0.44207,-0.03774,-0.058783,-0.062527,-0.061017,0.302924,0,-0.46913,0.581609,0.794646,0.000332,0.607872,0.788585,-0.002037,0.595467,0.821521,-0.001354,0.640369,0.815348,-0.011517,0.015758,0.991317,-0.002249,0,0,0,0,0,0,0,0,0,0,0,1
2537,'2025/06/30 16:38:34:434',108,0.44207,-0.03774,-0.058783,-0.062527,-0.061017,0.302924,0,-0.46913,0.581609,0.794646,0.000332,0.607872,0.788585,-0.002037,0.595467,0.821521,-0.001354,0.640369,0.815348,-0.011517,0.015758,0.991317,-0.002249,0,0,0,0,0,0,0,0,0,0,0,1
2538,'2025/06/30 16:38:34:440',108,0.44207,-0.03774,-0.058783,-0.062527,-0.061017,0.302924,0,-0.46913,0.581609,0.794646,0.000332,0.607872,0.788585,-0.002037,0.595467,0.821521,-0.001354,0.640369,0.815348,-0.011517,0.015758,0.991317,-0.002249,0,0,0,0,0,0,0,0,0,0,0,1
2539,'2025/06/30 16:38:34:445',108,0.44207,-0.03774,-0.058783,-0.062527,-0.061017,0.302924,0,-0.46913,0.581609,0.794646,0.000332,0.607872,0.788585,-0.002037,0.595467,0.821521,-0.001354,0.640369,0.815348,-0.011517,0.015758,0.991317,-0.002249,0,0,0,0,0,0,0,0,0,0,0,1
2540,'2025/06/30 16:38:34:451',108,0.44207,-0.03774,-0.058783,-0.062527,-0.061017,0.302924,0,-0.46913,0.581609,0.794646,0.000332,0.607872,0.788585,-0.002037,0.595467,0.821521,-0.001354,0.640369,0.815348,-0.011517,0.015758,0.991317,-0.002249,0,0,0,0,0,0,0,0,0,0,0,1
2541,'2025/06/30 16:38:34:456',108,0.44207,-0.03774,-0.058783,-0.062527,-0.061017,0.302924,0,-0.46913,0.581609,0.794646,0.000332,0.607872,0.788585,-0.002037,0.595467,0.821521,-0.001354,0.640369,0.815348,-0.011517,0.015758,0.991317,-0.002249,0,0,0,0,0,0,0,0,0,0,0,1
2542,'2025/06/30 16:38:34:462',108,0.44207,-0.03774,-0.058783,-0.062527,-0.061017,0.302924,0,-0.46913,0.581609,0.794646,0.000332,0.607872,0.788585,-0.002037,0.595467,0.821521,-0.001354,0.640369,0.815348,-0.011517,0.015758,0.991317,-0.002249,0,0,0,0,0,0,0,0,0,0,0,1
2543,'2025/06/30 16:38:34:468',108,0.44207,-0.03774,-0.058783,-0.062527,-0.061017,0.302924,0,-0.46913,0.581609,0.794646,0.000332,0.607872,0.788585,-0.002037,0.595467,0.821521,-0.001354,0.640369,0.815348,-0.011517,0.015758,0.991317,-0.002249,0,0,0,0,0,0,0,0,0,0,0,1
2544,'2025/06/30 16:38:34:474',108,0.44207,-0.03774,-0.058783,-0.062527,-0.061017,0.302924,0,-0.46913,0.581609,0.794646,0.000332,0.607872,0.788585,-0.002037,0.595467,0.821521,-0.001354,0.640369,0.815348,-0.011517,0.015758,0.991317,-0.002249,0,0,0,0,0,0,0,0,0,0,0,1
2545,'2025/06/30 16:38:34:479',108,0.44207,-0.03774,-0.058783,-0.062527,-0.061017,0.302924,0,-0.46913,0.581609,0.794646,0.000332,0.607872,0.788585,-0.002037,0.595467,0.821521,-0.001354,0.640369,0.815348,-0.011517,0.015758,0.991317,-0.002249,0,0,0,0,0,0,0,0,0,0,0,1
2546,'2025/06/30 16:38:34:485',108,0.44207,-0.03774,-0.058783,-0.062527,-0.061017,0.302924,0,-0.46913,0.581609,0.794646,0.000332,0.607872,0.788585,-0.002037,0.595467,0.821521,-0.001354,0.640369,0.815348,-0.011517,0.015758,0.991317,-0.002249,0,0,0,0,0,0,0,0,0,0,0,1
2547,'2025/06/30 16:38:34:492',108,0.44207,-0.03774,-0.058783,-0.062527,-0.061017,0.302924,0,-0.46913,0.581609,0.794646,0.000332,0.607872,0.788585,-0.002037,0.595467,0.821521,-0.001354,0.640369,0.815348,-0.011517,0.015758,0.991317,-0.002249,0,0,0,0,0,0,0,0,0,0,0,1
2548,'2025/06/30 16:38:59:698',109,0.388067,-0.036992,-0.050479,-0.051649,-0.04927,0.255503,0,-0.412227,0.559503,0.807241,0.001394,0.51519,0.826333,-0.005646,0.507641,0.844744,-0.008348,0.530718,0.853053,-0.019375,0.015758,0.991317,-0.002249,0,0,0,0,0,0,0,0,0,0,0,1
2549,'2025/06/30 16:38:59:705',109,0.388067,-0.036992,-0.050479,-0.051649,-0.04927,0.255503,0,-0.412227,0.559503,0.807241,0.001394,0.51519,0.826333,-0.005646,0.507641,0.844744,-0.008348,0.530718,0.853053,-0.019375,0.015758,0.991317,-0.002249,0,0,0,0,0,0,0,0,0,0,0,1
2550,'2025/06/30 16:38:59:711',109,0.388067,-0.036992,-0.050479,-0.051649,-0.04927,0.255503,0,-0.412227,0.559503,0.807241,0.001394,0.51519,0.826333,-0.005646,0.507641,0.844744,-0.008348,0.530718,0.853053,-0.019375,0.015758,0.991317,-0.002249,0,0,0,0,0,0,0,0,0,0,0,1
2551,'2025/06/30 16:38:59:716',109,0.388067,-0.036992,-0.050479,-0.051649,-0.04927,0.255503,0,-0.412227,0.559503,0.807241,0.001394,0.51519,0.826333,-0.005646,0.507641,0.844744,-0.008348,0.530718,0.853053,-0.019375,0.015758,0.991317,-0.002249,0,0,0,0,0,0,0,0,0,0,0,1
2552,'2025/06/30 16:38:59:723',109,0.388067,-0.036992,-0.050479,-0.051649,-0.04927,0.255503,0,-0.412227,0.559503,0.807241,0.001394,0.51519,0.826333,-0.005646,0.507641,0.844744,-0.008348,0.530718,0.853053,-0.019375,0.015758,0.991317,-0.002249,0,0,0,0,0,0,0,0,0,0,0,1
2553,'2025/06/30 16:38:59:729',109,0.388067,-0.036992,-0.050479,-0.051649,-0.04927,0.255503,0,-0.412227,0.559503,0.807241,0.001394,0.51519,0.826333,-0.005646,0.507641,0.844744,-0.008348,0.530718,0.853053,-0.019375,0.015758,0.991317,-0.002249,0,0,0,0,0,0,0,0,0,0,0,1
2554,'2025/06/30 16:38:59:734',109,0.388067,-0.036992,-0.050479,-0.051649,-0.04927,0.255503,0,-0.412227,0.559503,0.807241,0.001394,0.51519,0.826333,-0.005646,0.507641,0.844744,-0.008348,0.530718,0.853053,-0.019375,0.015758,0.991317,-0.002249,0,0,0,0,0,0,0,0,0,0,0,1
2555,'2025/06/30 16:38:59:740',109,0.388067,-0.036992,-0.050479,-0.051649,-0.04927,0.255503,0,-0.412227,0.559503,0.807241,0.001394,0.51519,0.826333,-0.005646,0.507641,0.844744,-0.008348,0.530718,0.853053,-0.019375,0.015758,0.991317,-0.002249,0,0,0,0,0,0,0,0,0,0,0,1
2556,'2025/06/30 16:38:59:744',109,0.388067,-0.036992,-0.050479,-0.051649,-0.04927,0.255503,0,-0.412227,0.559503,0.807241,0.001394,0.51519,0.826333,-0.005646,0.507641,0.844744,-0.008348,0.530718,0.853053,-0.019375,0.015758,0.991317,-0.002249,0,0,0,0,0,0,0,0,0,0,0,1
2557,'2025/06/30 16:38:59:750',109,0.388067,-0.036992,-0.050479,-0.051649,-0.04927,0.255503,0,-0.412227,0.559503,0.807241,0.001394,0.51519,0.826333,-0.005646,0.507641,0.844744,-0.008348,0.530718,0.853053,-0.019375,0.015758,0.991317,-0.002249,0,0,0,0,0,0,0,0,0,0,0,1
2558,'2025/06/30 16:38:59:756',109,0.388067,-0.036992,-0.050479,-0.051649,-0.04927,0.255503,0,-0.412227,0.559503,0.807241,0.001394,0.51519,0.826333,-0.005646,0.507641,0.844744,-0.008348,0.530718,0.853053,-0.019375,0.015758,0.991317,-0.002249,0,0,0,0,0,0,0,0,0,0,0,1
2559,'2025/06/30 16:38:59:763',109,0.388067,-0.036992,-0.050479,-0.051649,-0.04927,0.255503,0,-0.412227,0.559503,0.807241,0.001394,0.51519,0.826333,-0.005646,0.507641,0.844744,-0.008348,0.530718,0.853053,-0.019375,0.015758,0.991317,-0.002249,0,0,0,0,0,0,0,0,0,0,0,1
2560,'2025/06/30 16:38:59:768',109,0.388067,-0.036992,-0.050479,-0.051649,-0.04927,0.255503,0,-0.412227,0.559503,0.807241,0.001394,0.51519,0.826333,-0.005646,0.507641,0.844744,-0.008348,0.530718,0.853053,-0.019375,0.015758,0.991317,-0.002249,0,0,0,0,0,0,0,0,0,0,0,1
2561,'2025/06/30 16:38:59:774',109,0.388067,-0.036992,-0.050479,-0.051649,-0.04927,0.255503,0,-0.412227,0.559503,0.807241,0.001394,0.51519,0.826333,-0.005646,0.507641,0.844744,-0.008348,0.530718,0.853053,-0.019375,0.015758,0.991317,-0.002249,0,0,0,0,0,0,0,0,0,0,0,1
2562,'2025/06/30 16:38:59:780',109,0.388067,-0.036992,-0.050479,-0.051649,-0.04927,0.255503,0,-0.412227,0.559503,0.807241,0.001394,0.51519,0.826333,-0.005646,0.507641,0.844744,-0.008348,0.530718,0.853053,-0.019375,0.015758,0.991317,-0.002249,0,0,0,0,0,0,0,0,0,0,0,1
2563,'2025/06/30 16:38:59:786',109,0.388067,-0.036992,-0.050479,-0.051649,-0.04927,0.255503,0,-0.412227,0.559503,0.807241,0.001394,0.51519,0.826333,-0.005646,0.507641,0.844744,-0.008348,0.530718,0.853053,-0.019375,0.015758,0.991317,-0.002249,0,0,0,0,0,0,0,0,0,0,0,1
2564,'2025/06/30 16:38:59:792',109,0.388067,-0.036992,-0.050479,-0.051649,-0.04927,0.255503,0,-0.412227,0.559503,0.807241,0.001394,0.51519,0.826333,-0.005646,0.507641,0.844744,-0.008348,0.530718,0.853053,-0.019375,0.015758,0.991317,-0.002249,0,0,0,0,0,0,0,0,0,0,0,1
2565,'2025/06/30 16:38:59:800',109,0.388067,-0.036992,-0.050479,-0.051649,-0.04927,0.255503,0,-0.412227,0.559503,0.807241,0.001394,0.51519,0.826333,-0.005646,0.507641,0.844744,-0.008348,0.530718,0.853053,-0.019375,0.015758,0.991317,-0.002249,0,0,0,0,0,0,0,0,0,0,0,1
2566,'2025/06/30 16:38:59:803',109,0.388067,-0.036992,-0.050479,-0.051649,-0.04927,0.255503,0,-0.412227,0.559503,0.807241,0.001394,0.51519,0.826333,-0.005646,0.507641,0.844744,-0.008348,0.530718,0.853053,-0.019375,0.015758,0.991317,-0.002249,0,0,0,0,0,0,0,0,0,0,0,1
2567,'2025/06/30 16:38:59:809',109,0.388067,-0.036992,-0.050479,-0.051649,-0.04927,0.255503,0,-0.412227,0.559503,0.807241,0.001394,0.51519,0.826333,-0.005646,0.507641,0.844744,-0.008348,0.530718,0.853053,-0.019375,0.015758,0.991317,-0.002249,0,0,0,0,0,0,0,0,0,0,0,1
2568,'2025/06/30 16:38:59:815',109,0.388067,-0.036992,-0.050479,-0.051649,-0.04927,0.255503,0,-0.412227,0.559503,0.807241,0.001394,0.51519,0.826333,-0.005646,0.507641,0.844744,-0.008348,0.530718,0.853053,-0.019375,0.015758,0.991317,-0.002249,0,0,0,0,0,0,0,0,0,0,0,1
2569,'2025/06/30 16:38:59:821',109,0.388067,-0.036992,-0.050479,-0.051649,-0.04927,0.255503,0,-0.412227,0.559503,0.807241,0.001394,0.51519,0.826333,-0.005646,0.507641,0.844744,-0.008348,0.530718,0.853053,-0.019375,0.015758,0.991317,-0.002249,0,0,0,0,0,0,0,0,0,0,0,1
2570,'2025/06/30 16:38:59:827',109,0.388067,-0.036992,-0.050479,-0.051649,-0.04927,0.255503,0,-0.412227,0.559503,0.807241,0.001394,0.51519,0.826333,-0.005646,0.507641,0.844744,-0.008348,0.530718,0.853053,-0.019375,0.015758,0.991317,-0.002249,0,0,0,0,0,0,0,0,0,0,0,1
2571,'2025/06/30 16:38:59:833',109,0.388067,-0.036992,-0.050479,-0.051649,-0.04927,0.255503,0,-0.412227,0.559503,0.807241,0.001394,0.51519,0.826333,-0.005646,0.507641,0.844744,-0.008348,0.530718,0.853053,-0.019375,0.015758,0.991317,-0.002249,0,0,0,0,0,0,0,0,0,0,0,1
2572,'2025/06/30 16:38:59:839',109,0.388067,-0.036992,-0.050479,-0.051649,-0.04927,0.255503,0,-0.412227,0.559503,0.807241,0.001394,0.51519,0.826333,-0.005646,0.507641,0.844744,-0.008348,0.530718,0.853053,-0.019375,0.015758,0.991317,-0.002249,0,0,0,0,0,0,0,0,0,0,0,1
