@relation dataset

@attribute ID numeric
@attribute Time date 'yyyy/MM/dd HH:mm:ss:SSS'
@attribute 'Training round' numeric
@attribute inputs-1 numeric
@attribute outputs-1 numeric

@data
1,'2025/06/11 12:12:36:227',1,2.133219,0
2,'2025/06/11 12:12:36:232',1,2.133219,0
3,'2025/06/11 12:12:36:233',1,2.133219,0
4,'2025/06/11 12:12:36:236',1,2.133219,0
5,'2025/06/11 12:12:36:239',1,2.133219,0
6,'2025/06/11 12:12:36:242',1,2.133219,0
7,'2025/06/11 12:12:36:245',1,2.133219,0
8,'2025/06/11 12:12:36:248',1,2.133219,0
9,'2025/06/11 12:12:36:250',1,2.133219,0
10,'2025/06/11 12:12:36:255',1,2.133219,0
11,'2025/06/11 12:12:36:257',1,2.133219,0
12,'2025/06/11 12:12:36:260',1,2.133219,0
13,'2025/06/11 12:12:36:262',1,2.133219,0
14,'2025/06/11 12:12:36:264',1,2.133219,0
15,'2025/06/11 12:12:36:267',1,2.133219,0
16,'2025/06/11 12:12:36:270',1,2.133219,0
17,'2025/06/11 12:12:36:274',1,2.133219,0
18,'2025/06/11 12:12:36:276',1,2.133219,0
19,'2025/06/11 12:12:36:278',1,2.133219,0
20,'2025/06/11 12:12:36:282',1,2.133219,0
21,'2025/06/11 12:12:36:284',1,2.133219,0
22,'2025/06/11 12:12:36:286',1,2.133219,0
23,'2025/06/11 12:12:36:290',1,2.133219,0
24,'2025/06/11 12:12:36:293',1,2.133219,0
25,'2025/06/11 12:12:36:296',1,2.133219,0
26,'2025/06/11 12:12:36:298',1,2.133219,0
27,'2025/06/11 12:12:36:302',1,2.133219,0
28,'2025/06/11 12:12:36:304',1,2.133219,0
29,'2025/06/11 12:12:36:307',1,2.133219,0
30,'2025/06/11 12:12:36:310',1,2.133219,0
31,'2025/06/11 12:12:36:314',1,2.133219,0
32,'2025/06/11 12:12:36:316',1,2.133219,0
33,'2025/06/11 12:12:36:318',1,2.133219,0
34,'2025/06/11 12:12:36:321',1,2.133219,0
35,'2025/06/11 12:12:36:324',1,2.133219,0
36,'2025/06/11 12:12:36:326',1,2.133219,0
37,'2025/06/11 12:12:36:328',1,2.133219,0
38,'2025/06/11 12:12:36:331',1,2.133219,0
39,'2025/06/11 12:12:36:333',1,2.133219,0
40,'2025/06/11 12:12:36:337',1,2.133219,0
41,'2025/06/11 12:12:36:339',1,2.133219,0
42,'2025/06/11 12:12:36:342',1,2.133219,0
43,'2025/06/11 12:12:36:344',1,2.133219,0
44,'2025/06/11 12:12:36:346',1,2.133219,0
45,'2025/06/11 12:12:36:349',1,2.133219,0
46,'2025/06/11 12:12:36:352',1,2.133219,0
47,'2025/06/11 12:12:36:354',1,2.133219,0
48,'2025/06/11 12:12:36:356',1,2.133219,0
49,'2025/06/11 12:12:36:359',1,2.133219,0
50,'2025/06/11 12:12:36:362',1,2.133219,0
51,'2025/06/11 12:12:36:364',1,2.133219,0
52,'2025/06/11 12:12:36:366',1,2.133219,0
53,'2025/06/11 12:12:36:368',1,2.133219,0
54,'2025/06/11 12:12:36:370',1,2.133219,0
55,'2025/06/11 12:12:36:374',1,2.133219,0
56,'2025/06/11 12:12:36:375',1,2.133219,0
57,'2025/06/11 12:12:36:379',1,2.133219,0
58,'2025/06/11 12:12:36:381',1,2.133219,0
59,'2025/06/11 12:12:36:383',1,2.133219,0
60,'2025/06/11 12:12:36:387',1,2.133219,0
61,'2025/06/11 12:12:36:389',1,2.133219,0
62,'2025/06/11 12:12:36:392',1,2.133219,0
63,'2025/06/11 12:12:36:394',1,2.133219,0
64,'2025/06/11 12:12:36:396',1,2.133219,0
65,'2025/06/11 12:12:36:398',1,2.133219,0
66,'2025/06/11 12:12:36:402',1,2.133219,0
67,'2025/06/11 12:12:36:403',1,2.133219,0
68,'2025/06/11 12:12:36:406',1,2.133219,0
69,'2025/06/11 12:12:36:408',1,2.133219,0
70,'2025/06/11 12:12:36:410',1,2.133219,0
71,'2025/06/11 12:12:36:414',1,2.133219,0
72,'2025/06/11 12:12:36:416',1,2.133219,0
73,'2025/06/11 12:12:36:419',1,2.133219,0
74,'2025/06/11 12:12:36:421',1,2.133219,0
75,'2025/06/11 12:12:36:423',1,2.133219,0
76,'2025/06/11 12:12:36:425',1,2.133219,0
77,'2025/06/11 12:12:36:428',1,2.133219,0
78,'2025/06/11 12:12:36:430',1,2.133219,0
79,'2025/06/11 12:12:36:433',1,2.133219,0
80,'2025/06/11 12:12:36:436',1,2.133219,0
81,'2025/06/11 12:12:36:438',1,2.133219,0
82,'2025/06/11 12:12:36:440',1,2.133219,0
83,'2025/06/11 12:12:36:443',1,2.133219,0
84,'2025/06/11 12:12:36:445',1,2.133219,0
85,'2025/06/11 12:12:36:448',1,2.133219,0
86,'2025/06/11 12:12:36:451',1,2.133219,0
87,'2025/06/11 12:12:36:453',1,2.133219,0
88,'2025/06/11 12:12:36:456',1,2.133219,0
89,'2025/06/11 12:12:36:458',1,2.133219,0
90,'2025/06/11 12:12:36:460',1,2.133219,0
91,'2025/06/11 12:12:36:463',1,2.133219,0
92,'2025/06/11 12:12:36:466',1,2.133219,0
93,'2025/06/11 12:12:36:468',1,2.133219,0
94,'2025/06/11 12:12:36:470',1,2.133219,0
95,'2025/06/11 12:12:36:473',1,2.133219,0
96,'2025/06/11 12:12:36:475',1,2.133219,0
97,'2025/06/11 12:12:36:477',1,2.133219,0
98,'2025/06/11 12:12:36:480',1,2.133219,0
99,'2025/06/11 12:12:36:482',1,2.133219,0
100,'2025/06/11 12:12:36:485',1,2.133219,0
101,'2025/06/11 12:12:36:487',1,2.133219,0
102,'2025/06/11 12:12:36:489',1,2.133219,0
103,'2025/06/11 12:12:36:492',1,2.133219,0
104,'2025/06/11 12:12:36:495',1,2.133219,0
105,'2025/06/11 12:12:36:497',1,2.133219,0
106,'2025/06/11 12:12:36:500',1,2.133219,0
107,'2025/06/11 12:12:36:502',1,2.133219,0
108,'2025/06/11 12:12:36:505',1,2.133219,0
109,'2025/06/11 12:12:36:508',1,2.133219,0
110,'2025/06/11 12:12:36:510',1,2.133219,0
111,'2025/06/11 12:12:36:513',1,2.133219,0
112,'2025/06/11 12:12:36:515',1,2.133219,0
113,'2025/06/11 12:12:36:518',1,2.133219,0
114,'2025/06/11 12:12:36:520',1,2.133219,0
115,'2025/06/11 12:12:36:522',1,2.133219,0
116,'2025/06/11 12:12:36:524',1,2.133219,0
117,'2025/06/11 12:12:36:527',1,2.133219,0
118,'2025/06/11 12:12:36:529',1,2.133219,0
119,'2025/06/11 12:12:36:532',1,2.133219,0
120,'2025/06/11 12:12:36:535',1,2.133219,0
121,'2025/06/11 12:12:36:536',1,2.133219,0
122,'2025/06/11 12:12:36:540',1,2.133219,0
123,'2025/06/11 12:12:36:542',1,2.133219,0
124,'2025/06/11 12:12:36:545',1,2.133219,0
125,'2025/06/11 12:12:36:547',1,2.133219,0
126,'2025/06/11 12:12:36:549',1,2.133219,0
127,'2025/06/11 12:12:36:552',1,2.133219,0
128,'2025/06/11 12:12:36:555',1,2.133219,0
129,'2025/06/11 12:12:36:557',1,2.133219,0
130,'2025/06/11 12:12:36:560',1,2.133219,0
131,'2025/06/11 12:12:36:562',1,2.133219,0
132,'2025/06/11 12:12:36:565',1,2.133219,0
133,'2025/06/11 12:12:36:567',1,2.133219,0
134,'2025/06/11 12:12:36:570',1,2.133219,0
135,'2025/06/11 12:12:36:572',1,2.133219,0
136,'2025/06/11 12:12:36:574',1,2.133219,0
137,'2025/06/11 12:12:36:577',1,2.133219,0
138,'2025/06/11 12:12:36:579',1,2.133219,0
139,'2025/06/11 12:12:36:582',1,2.133219,0
140,'2025/06/11 12:12:36:584',1,2.133219,0
141,'2025/06/11 12:12:36:586',1,2.133219,0
142,'2025/06/11 12:12:36:590',1,2.133219,0
143,'2025/06/11 12:12:36:592',1,2.133219,0
144,'2025/06/11 12:12:36:594',1,2.133219,0
145,'2025/06/11 12:12:36:596',1,2.133219,0
146,'2025/06/11 12:12:36:599',1,2.133219,0
147,'2025/06/11 12:12:36:602',1,2.133219,0
148,'2025/06/11 12:12:36:604',1,2.133219,0
149,'2025/06/11 12:12:36:607',1,2.133219,0
150,'2025/06/11 12:12:36:610',1,2.133219,0
151,'2025/06/11 12:12:36:612',1,2.133219,0
152,'2025/06/11 12:12:36:615',1,2.133219,0
153,'2025/06/11 12:12:36:617',1,2.133219,0
154,'2025/06/11 12:12:36:619',1,2.133219,0
155,'2025/06/11 12:12:36:622',1,2.133219,0
156,'2025/06/11 12:12:36:624',1,2.133219,0
157,'2025/06/11 12:12:36:626',1,2.133219,0
158,'2025/06/11 12:12:36:628',1,2.133219,0
159,'2025/06/11 12:12:36:631',1,2.133219,0
160,'2025/06/11 12:12:36:633',1,2.133219,0
161,'2025/06/11 12:12:36:636',1,2.133219,0
162,'2025/06/11 12:12:36:639',1,2.133219,0
163,'2025/06/11 12:12:36:640',1,2.133219,0
164,'2025/06/11 12:12:36:643',1,2.133219,0
165,'2025/06/11 12:12:36:646',1,2.133219,0
166,'2025/06/11 12:12:36:648',1,2.133219,0
167,'2025/06/11 12:12:36:652',1,2.133219,0
168,'2025/06/11 12:12:36:655',1,2.133219,0
169,'2025/06/11 12:12:36:658',1,2.133219,0
170,'2025/06/11 12:12:36:661',1,2.133219,0
171,'2025/06/11 12:12:36:663',1,2.133219,0
172,'2025/06/11 12:12:36:666',1,2.133219,0
173,'2025/06/11 12:12:36:668',1,2.133219,0
174,'2025/06/11 12:12:36:670',1,2.133219,0
175,'2025/06/11 12:12:36:674',1,2.133219,0
176,'2025/06/11 12:12:36:676',1,2.133219,0
177,'2025/06/11 12:12:36:679',1,2.133219,0
178,'2025/06/11 12:12:36:681',1,2.133219,0
179,'2025/06/11 12:12:36:683',1,2.133219,0
180,'2025/06/11 12:12:36:687',1,2.133219,0
181,'2025/06/11 12:12:36:689',1,2.133219,0
182,'2025/06/11 12:12:36:692',1,2.133219,0
183,'2025/06/11 12:12:36:694',1,2.133219,0
184,'2025/06/11 12:12:36:698',1,2.133219,0
185,'2025/06/11 12:12:36:701',1,2.133219,0
186,'2025/06/11 12:12:36:703',1,2.133219,0
187,'2025/06/11 12:12:36:706',1,2.133219,0
188,'2025/06/11 12:12:36:708',1,2.133219,0
189,'2025/06/11 12:12:36:712',1,2.133219,0
190,'2025/06/11 12:12:36:714',1,2.133219,0
191,'2025/06/11 12:12:36:717',1,2.133219,0
192,'2025/06/11 12:12:36:720',1,2.133219,0
193,'2025/06/11 12:12:36:722',1,2.133219,0
194,'2025/06/11 12:12:36:724',1,2.133219,0
195,'2025/06/11 12:12:36:726',1,2.133219,0
196,'2025/06/11 12:12:36:729',1,2.133219,0
197,'2025/06/11 12:12:36:733',1,2.133219,0
198,'2025/06/11 12:12:36:735',1,2.133219,0
199,'2025/06/11 12:12:36:738',1,2.133219,0
200,'2025/06/11 12:12:36:740',1,2.133219,0
201,'2025/06/11 12:12:36:743',1,2.133219,0
202,'2025/06/11 12:12:36:745',1,2.133219,0
203,'2025/06/11 12:12:36:747',1,2.133219,0
204,'2025/06/11 12:12:36:749',1,2.133219,0
205,'2025/06/11 12:12:36:752',1,2.133219,0
206,'2025/06/11 12:12:36:754',1,2.133219,0
207,'2025/06/11 12:12:36:757',1,2.133219,0
208,'2025/06/11 12:12:36:759',1,2.133219,0
209,'2025/06/11 12:12:36:762',1,2.133219,0
210,'2025/06/11 12:12:36:764',1,2.133219,0
211,'2025/06/11 12:12:36:767',1,2.133219,0
212,'2025/06/11 12:12:36:769',1,2.133219,0
213,'2025/06/11 12:12:36:772',1,2.133219,0
214,'2025/06/11 12:12:36:774',1,2.133219,0
215,'2025/06/11 12:12:36:777',1,2.133219,0
216,'2025/06/11 12:12:36:780',1,2.133219,0
217,'2025/06/11 12:12:36:783',1,2.133219,0
218,'2025/06/11 12:12:36:785',1,2.133219,0
219,'2025/06/11 12:12:36:787',1,2.133219,0
220,'2025/06/11 12:12:36:790',1,2.133219,0
221,'2025/06/11 12:12:36:792',1,2.133219,0
222,'2025/06/11 12:12:36:796',1,2.133219,0
223,'2025/06/11 12:12:36:798',1,2.133219,0
224,'2025/06/11 12:12:36:800',1,2.133219,0
225,'2025/06/11 12:12:36:803',1,2.133219,0
226,'2025/06/11 12:12:36:805',1,2.133219,0
227,'2025/06/11 12:12:36:809',1,2.133219,0
228,'2025/06/11 12:12:36:812',1,2.133219,0
229,'2025/06/11 12:12:36:814',1,2.133219,0
230,'2025/06/11 12:12:36:816',1,2.133219,0
231,'2025/06/11 12:12:36:819',1,2.133219,0
232,'2025/06/11 12:12:36:822',1,2.133219,0
233,'2025/06/11 12:12:36:824',1,2.133219,0
234,'2025/06/11 12:12:36:828',1,2.133219,0
235,'2025/06/11 12:12:36:830',1,2.133219,0
236,'2025/06/11 12:12:36:834',1,2.133219,0
237,'2025/06/11 12:12:36:836',1,2.133219,0
238,'2025/06/11 12:12:36:839',1,2.133219,0
239,'2025/06/11 12:12:36:842',1,2.133219,0
240,'2025/06/11 12:12:36:844',1,2.133219,0
241,'2025/06/11 12:12:36:847',1,2.133219,0
242,'2025/06/11 12:12:36:850',1,2.133219,0
243,'2025/06/11 12:12:36:852',1,2.133219,0
244,'2025/06/11 12:12:36:854',1,2.133219,0
245,'2025/06/11 12:12:36:858',1,2.133219,0
246,'2025/06/11 12:12:36:861',1,2.133219,0
247,'2025/06/11 12:12:36:864',1,2.133219,0
248,'2025/06/11 12:12:36:866',1,2.133219,0
249,'2025/06/11 12:12:36:869',1,2.133219,0
250,'2025/06/11 12:12:36:872',1,2.133219,0
251,'2025/06/11 12:12:36:875',1,2.133219,0
252,'2025/06/11 12:12:36:877',1,2.133219,0
253,'2025/06/11 12:12:36:879',1,2.133219,0
254,'2025/06/11 12:12:36:883',1,2.133219,0
255,'2025/06/11 12:12:36:886',1,2.133219,0
256,'2025/06/11 12:12:36:889',1,2.133219,0
257,'2025/06/11 12:12:36:890',1,2.133219,0
258,'2025/06/11 12:12:36:894',1,2.133219,0
259,'2025/06/11 12:12:36:895',1,2.133219,0
260,'2025/06/11 12:12:36:898',1,2.133219,0
261,'2025/06/11 12:12:36:901',1,2.133219,0
262,'2025/06/11 12:12:36:902',1,2.133219,0
263,'2025/06/11 12:12:36:905',1,2.133219,0
264,'2025/06/11 12:12:36:908',1,2.133219,0
265,'2025/06/11 12:12:36:910',1,2.133219,0
266,'2025/06/11 12:12:36:912',1,2.133219,0
267,'2025/06/11 12:12:36:915',1,2.133219,0
268,'2025/06/11 12:12:36:917',1,2.133219,0
269,'2025/06/11 12:12:36:920',1,2.133219,0
270,'2025/06/11 12:12:36:923',1,2.133219,0
271,'2025/06/11 12:12:36:925',1,2.133219,0
272,'2025/06/11 12:12:36:926',1,2.133219,0
273,'2025/06/11 12:12:36:930',1,2.133219,0
274,'2025/06/11 12:12:36:932',1,2.133219,0
275,'2025/06/11 12:12:36:934',1,2.133219,0
276,'2025/06/11 12:12:36:937',1,2.133219,0
277,'2025/06/11 12:12:36:939',1,2.133219,0
278,'2025/06/11 12:12:36:941',1,2.133219,0
279,'2025/06/11 12:12:36:943',1,2.133219,0
280,'2025/06/11 12:12:36:946',1,2.133219,0
281,'2025/06/11 12:12:36:948',1,2.133219,0
282,'2025/06/11 12:12:36:951',1,2.133219,0
283,'2025/06/11 12:12:36:952',1,2.133219,0
284,'2025/06/11 12:12:36:955',1,2.133219,0
285,'2025/06/11 12:12:36:957',1,2.133219,0
286,'2025/06/11 12:12:36:959',1,2.133219,0
287,'2025/06/11 12:12:36:962',1,2.133219,0
288,'2025/06/11 12:12:36:965',1,2.133219,0
289,'2025/06/11 12:12:36:967',1,2.133219,0
290,'2025/06/11 12:12:36:969',1,2.133219,0
291,'2025/06/11 12:12:36:972',1,2.133219,0
292,'2025/06/11 12:12:36:973',1,2.133219,0
293,'2025/06/11 12:12:36:976',1,2.133219,0
294,'2025/06/11 12:12:36:978',1,2.133219,0
295,'2025/06/11 12:12:36:981',1,2.133219,0
296,'2025/06/11 12:12:36:983',1,2.133219,0
297,'2025/06/11 12:12:36:985',1,2.133219,0
298,'2025/06/11 12:12:36:987',1,2.133219,0
299,'2025/06/11 12:12:36:990',1,2.133219,0
300,'2025/06/11 12:12:36:993',1,2.133219,0
301,'2025/06/11 12:12:36:995',1,2.133219,0
302,'2025/06/11 12:12:36:997',1,2.133219,0
303,'2025/06/11 12:12:36:999',1,2.133219,0
304,'2025/06/11 12:12:37:002',1,2.133219,0
305,'2025/06/11 12:12:37:004',1,2.133219,0
306,'2025/06/11 12:12:37:006',1,2.133219,0
307,'2025/06/11 12:12:37:009',1,2.133219,0
308,'2025/06/11 12:12:37:012',1,2.133219,0
309,'2025/06/11 12:12:37:014',1,2.133219,0
310,'2025/06/11 12:12:37:015',1,2.133219,0
311,'2025/06/11 12:12:37:019',1,2.133219,0
312,'2025/06/11 12:12:37:021',1,2.133219,0
313,'2025/06/11 12:12:37:023',1,2.133219,0
314,'2025/06/11 12:12:37:026',1,2.133219,0
315,'2025/06/11 12:12:37:028',1,2.133219,0
316,'2025/06/11 12:12:37:031',1,2.133219,0
317,'2025/06/11 12:12:37:034',1,2.133219,0
318,'2025/06/11 12:12:37:036',1,2.133219,0
319,'2025/06/11 12:12:37:038',1,2.133219,0
320,'2025/06/11 12:12:37:041',1,2.133219,0
321,'2025/06/11 12:12:37:043',1,2.133219,0
322,'2025/06/11 12:12:37:045',1,2.133219,0
323,'2025/06/11 12:12:37:047',1,2.133219,0
324,'2025/06/11 12:12:37:050',1,2.133219,0
325,'2025/06/11 12:12:37:053',1,2.133219,0
326,'2025/06/11 12:12:37:055',1,2.133219,0
327,'2025/06/11 12:12:37:057',1,2.133219,0
328,'2025/06/11 12:12:37:060',1,2.133219,0
329,'2025/06/11 12:12:37:062',1,2.133219,0
330,'2025/06/11 12:12:37:064',1,2.133219,0
331,'2025/06/11 12:12:37:067',1,2.133219,0
332,'2025/06/11 12:12:37:070',1,2.133219,0
333,'2025/06/11 12:12:37:072',1,2.133219,0
334,'2025/06/11 12:12:37:075',1,2.133219,0
335,'2025/06/11 12:12:37:078',1,2.133219,0
336,'2025/06/11 12:12:37:080',1,2.133219,0
337,'2025/06/11 12:12:37:083',1,2.133219,0
338,'2025/06/11 12:12:37:085',1,2.133219,0
339,'2025/06/11 12:12:37:087',1,2.133219,0
340,'2025/06/11 12:12:37:089',1,2.133219,0
341,'2025/06/11 12:12:37:092',1,2.133219,0
342,'2025/06/11 12:12:37:094',1,2.133219,0
343,'2025/06/11 12:12:37:097',1,2.133219,0
344,'2025/06/11 12:12:37:099',1,2.133219,0
345,'2025/06/11 12:12:37:102',1,2.133219,0
346,'2025/06/11 12:12:37:104',1,2.133219,0
347,'2025/06/11 12:12:37:107',1,2.133219,0
348,'2025/06/11 12:12:37:109',1,2.133219,0
349,'2025/06/11 12:12:49:079',2,5.56,1
350,'2025/06/11 12:12:49:082',2,5.56,1
351,'2025/06/11 12:12:49:084',2,5.56,1
352,'2025/06/11 12:12:49:086',2,5.56,1
353,'2025/06/11 12:12:49:089',2,5.56,1
354,'2025/06/11 12:12:49:092',2,5.56,1
355,'2025/06/11 12:12:49:094',2,5.56,1
356,'2025/06/11 12:12:49:097',2,5.56,1
357,'2025/06/11 12:12:49:098',2,5.56,1
358,'2025/06/11 12:12:49:100',2,5.56,1
359,'2025/06/11 12:12:49:103',2,5.56,1
360,'2025/06/11 12:12:49:106',2,5.56,1
361,'2025/06/11 12:12:49:108',2,5.56,1
362,'2025/06/11 12:12:49:110',2,5.56,1
363,'2025/06/11 12:12:49:113',2,5.56,1
364,'2025/06/11 12:12:49:115',2,5.56,1
365,'2025/06/11 12:12:49:118',2,5.56,1
366,'2025/06/11 12:12:49:120',2,5.56,1
367,'2025/06/11 12:12:49:122',2,5.56,1
368,'2025/06/11 12:12:49:124',2,5.56,1
369,'2025/06/11 12:12:49:127',2,5.56,1
370,'2025/06/11 12:12:49:129',2,5.56,1
371,'2025/06/11 12:12:49:132',2,5.56,1
372,'2025/06/11 12:12:49:135',2,5.56,1
373,'2025/06/11 12:12:49:137',2,5.56,1
374,'2025/06/11 12:12:49:139',2,5.56,1
375,'2025/06/11 12:12:49:142',2,5.56,1
376,'2025/06/11 12:12:49:144',2,5.56,1
377,'2025/06/11 12:12:49:146',2,5.56,1
378,'2025/06/11 12:12:49:149',2,5.56,1
379,'2025/06/11 12:12:49:151',2,5.56,1
380,'2025/06/11 12:12:49:153',2,5.56,1
381,'2025/06/11 12:12:49:156',2,5.56,1
382,'2025/06/11 12:12:49:158',2,5.56,1
383,'2025/06/11 12:12:49:160',2,5.56,1
384,'2025/06/11 12:12:49:164',2,5.56,1
385,'2025/06/11 12:12:49:166',2,5.56,1
386,'2025/06/11 12:12:49:168',2,5.56,1
387,'2025/06/11 12:12:49:172',2,5.56,1
388,'2025/06/11 12:12:49:173',2,5.56,1
389,'2025/06/11 12:12:49:177',2,5.56,1
390,'2025/06/11 12:12:49:178',2,5.56,1
391,'2025/06/11 12:12:49:181',2,5.56,1
392,'2025/06/11 12:12:49:183',2,5.56,1
393,'2025/06/11 12:12:49:185',2,5.56,1
394,'2025/06/11 12:12:49:188',2,5.56,1
395,'2025/06/11 12:12:49:190',2,5.56,1
396,'2025/06/11 12:12:49:193',2,5.56,1
397,'2025/06/11 12:12:49:195',2,5.56,1
398,'2025/06/11 12:12:49:198',2,5.56,1
399,'2025/06/11 12:12:49:200',2,5.56,1
400,'2025/06/11 12:12:49:202',2,5.56,1
401,'2025/06/11 12:12:49:205',2,5.56,1
402,'2025/06/11 12:12:49:207',2,5.56,1
403,'2025/06/11 12:12:49:209',2,5.56,1
404,'2025/06/11 12:12:49:212',2,5.56,1
405,'2025/06/11 12:12:49:215',2,5.56,1
406,'2025/06/11 12:12:49:217',2,5.56,1
407,'2025/06/11 12:12:49:220',2,5.56,1
408,'2025/06/11 12:12:49:222',2,5.56,1
409,'2025/06/11 12:12:49:224',2,5.56,1
410,'2025/06/11 12:12:49:227',2,5.56,1
411,'2025/06/11 12:12:49:230',2,5.56,1
412,'2025/06/11 12:12:49:232',2,5.56,1
413,'2025/06/11 12:12:49:234',2,5.56,1
414,'2025/06/11 12:12:49:236',2,5.56,1
415,'2025/06/11 12:12:49:239',2,5.56,1
416,'2025/06/11 12:12:49:242',2,5.56,1
417,'2025/06/11 12:12:49:244',2,5.56,1
418,'2025/06/11 12:12:49:246',2,5.56,1
419,'2025/06/11 12:12:49:250',2,5.56,1
420,'2025/06/11 12:12:49:252',2,5.56,1
421,'2025/06/11 12:12:49:255',2,5.56,1
422,'2025/06/11 12:12:49:256',2,5.56,1
423,'2025/06/11 12:12:49:260',2,5.56,1
424,'2025/06/11 12:12:49:262',2,5.56,1
425,'2025/06/11 12:12:49:265',2,5.56,1
426,'2025/06/11 12:12:49:267',2,5.56,1
427,'2025/06/11 12:12:49:269',2,5.56,1
428,'2025/06/11 12:12:49:272',2,5.56,1
429,'2025/06/11 12:12:49:274',2,5.56,1
430,'2025/06/11 12:12:49:276',2,5.56,1
431,'2025/06/11 12:12:49:279',2,5.56,1
432,'2025/06/11 12:12:49:282',2,5.56,1
433,'2025/06/11 12:12:49:284',2,5.56,1
434,'2025/06/11 12:12:49:286',2,5.56,1
435,'2025/06/11 12:12:49:288',2,5.56,1
436,'2025/06/11 12:12:49:290',2,5.56,1
437,'2025/06/11 12:12:49:293',2,5.56,1
438,'2025/06/11 12:12:49:295',2,5.56,1
439,'2025/06/11 12:12:49:297',2,5.56,1
440,'2025/06/11 12:12:49:300',2,5.56,1
441,'2025/06/11 12:12:49:302',2,5.56,1
442,'2025/06/11 12:12:49:305',2,5.56,1
443,'2025/06/11 12:12:49:307',2,5.56,1
444,'2025/06/11 12:12:49:309',2,5.56,1
445,'2025/06/11 12:12:49:312',2,5.56,1
446,'2025/06/11 12:12:49:313',2,5.56,1
447,'2025/06/11 12:12:49:317',2,5.56,1
448,'2025/06/11 12:12:49:319',2,5.56,1
449,'2025/06/11 12:12:49:322',2,5.56,1
450,'2025/06/11 12:12:49:324',2,5.56,1
451,'2025/06/11 12:12:49:326',2,5.56,1
452,'2025/06/11 12:12:49:328',2,5.56,1
453,'2025/06/11 12:12:49:330',2,5.56,1
454,'2025/06/11 12:12:49:334',2,5.56,1
455,'2025/06/11 12:12:49:336',2,5.56,1
456,'2025/06/11 12:12:49:339',2,5.56,1
457,'2025/06/11 12:12:49:341',2,5.56,1
458,'2025/06/11 12:12:49:343',2,5.56,1
459,'2025/06/11 12:12:49:345',2,5.56,1
460,'2025/06/11 12:12:49:348',2,5.56,1
461,'2025/06/11 12:12:49:350',2,5.56,1
462,'2025/06/11 12:12:49:353',2,5.56,1
463,'2025/06/11 12:12:49:355',2,5.56,1
464,'2025/06/11 12:12:49:357',2,5.56,1
465,'2025/06/11 12:12:49:360',2,5.56,1
466,'2025/06/11 12:12:49:363',2,5.56,1
467,'2025/06/11 12:12:49:366',2,5.56,1
468,'2025/06/11 12:12:49:368',2,5.56,1
469,'2025/06/11 12:12:49:369',2,5.56,1
470,'2025/06/11 12:12:49:373',2,5.56,1
471,'2025/06/11 12:12:49:375',2,5.56,1
472,'2025/06/11 12:12:49:377',2,5.56,1
473,'2025/06/11 12:12:49:380',2,5.56,1
474,'2025/06/11 12:12:49:382',2,5.56,1
475,'2025/06/11 12:12:49:384',2,5.56,1
476,'2025/06/11 12:12:49:386',2,5.56,1
477,'2025/06/11 12:12:49:389',2,5.56,1
478,'2025/06/11 12:12:49:392',2,5.56,1
479,'2025/06/11 12:12:49:394',2,5.56,1
480,'2025/06/11 12:12:49:396',2,5.56,1
481,'2025/06/11 12:12:49:398',2,5.56,1
482,'2025/06/11 12:12:49:400',2,5.56,1
483,'2025/06/11 12:12:49:403',2,5.56,1
484,'2025/06/11 12:12:49:406',2,5.56,1
485,'2025/06/11 12:12:49:408',2,5.56,1
486,'2025/06/11 12:12:49:411',2,5.56,1
487,'2025/06/11 12:12:49:413',2,5.56,1
488,'2025/06/11 12:12:49:415',2,5.56,1
489,'2025/06/11 12:12:49:418',2,5.56,1
490,'2025/06/11 12:12:49:420',2,5.56,1
491,'2025/06/11 12:12:49:423',2,5.56,1
492,'2025/06/11 12:12:49:425',2,5.56,1
493,'2025/06/11 12:12:49:428',2,5.56,1
494,'2025/06/11 12:12:49:430',2,5.56,1
495,'2025/06/11 12:12:49:433',2,5.56,1
496,'2025/06/11 12:12:49:435',2,5.56,1
497,'2025/06/11 12:12:49:437',2,5.56,1
498,'2025/06/11 12:12:49:440',2,5.56,1
499,'2025/06/11 12:12:49:442',2,5.56,1
500,'2025/06/11 12:12:49:444',2,5.56,1
501,'2025/06/11 12:12:49:446',2,5.56,1
502,'2025/06/11 12:12:49:449',2,5.56,1
503,'2025/06/11 12:12:49:452',2,5.56,1
504,'2025/06/11 12:12:49:454',2,5.56,1
505,'2025/06/11 12:12:49:457',2,5.56,1
506,'2025/06/11 12:12:49:459',2,5.56,1
507,'2025/06/11 12:12:49:462',2,5.56,1
508,'2025/06/11 12:12:49:464',2,5.56,1
509,'2025/06/11 12:12:49:466',2,5.56,1
510,'2025/06/11 12:12:49:469',2,5.56,1
511,'2025/06/11 12:12:49:471',2,5.56,1
512,'2025/06/11 12:12:49:475',2,5.56,1
513,'2025/06/11 12:12:49:477',2,5.56,1
514,'2025/06/11 12:12:49:478',2,5.56,1
515,'2025/06/11 12:12:49:482',2,5.56,1
516,'2025/06/11 12:12:49:484',2,5.56,1
517,'2025/06/11 12:12:49:487',2,5.56,1
518,'2025/06/11 12:12:49:489',2,5.56,1
519,'2025/06/11 12:12:49:491',2,5.56,1
520,'2025/06/11 12:12:49:494',2,5.56,1
521,'2025/06/11 12:12:49:496',2,5.56,1
522,'2025/06/11 12:12:49:499',2,5.56,1
523,'2025/06/11 12:12:49:500',2,5.56,1
524,'2025/06/11 12:12:49:503',2,5.56,1
525,'2025/06/11 12:12:49:505',2,5.56,1
526,'2025/06/11 12:12:49:508',2,5.56,1
527,'2025/06/11 12:12:49:511',2,5.56,1
528,'2025/06/11 12:12:49:514',2,5.56,1
529,'2025/06/11 12:12:49:516',2,5.56,1
530,'2025/06/11 12:12:49:520',2,5.56,1
531,'2025/06/11 12:12:49:522',2,5.56,1
532,'2025/06/11 12:12:49:525',2,5.56,1
533,'2025/06/11 12:12:49:527',2,5.56,1
534,'2025/06/11 12:12:49:529',2,5.56,1
535,'2025/06/11 12:12:49:532',2,5.56,1
536,'2025/06/11 12:12:49:535',2,5.56,1
537,'2025/06/11 12:12:49:537',2,5.56,1
538,'2025/06/11 12:12:49:540',2,5.56,1
539,'2025/06/11 12:12:49:542',2,5.56,1
540,'2025/06/11 12:12:49:545',2,5.56,1
541,'2025/06/11 12:12:49:548',2,5.56,1
542,'2025/06/11 12:12:49:550',2,5.56,1
543,'2025/06/11 12:12:49:553',2,5.56,1
544,'2025/06/11 12:12:49:555',2,5.56,1
545,'2025/06/11 12:12:49:557',2,5.56,1
546,'2025/06/11 12:12:49:560',2,5.56,1
547,'2025/06/11 12:12:49:562',2,5.56,1
548,'2025/06/11 12:12:49:565',2,5.56,1
549,'2025/06/11 12:12:49:568',2,5.56,1
550,'2025/06/11 12:12:49:569',2,5.56,1
551,'2025/06/11 12:12:49:573',2,5.56,1
552,'2025/06/11 12:12:49:575',2,5.56,1
553,'2025/06/11 12:12:49:577',2,5.56,1
554,'2025/06/11 12:12:49:579',2,5.56,1
555,'2025/06/11 12:12:49:582',2,5.56,1
556,'2025/06/11 12:12:49:584',2,5.56,1
557,'2025/06/11 12:12:49:586',2,5.56,1
558,'2025/06/11 12:12:49:589',2,5.56,1
559,'2025/06/11 12:12:49:592',2,5.56,1
560,'2025/06/11 12:12:49:594',2,5.56,1
561,'2025/06/11 12:12:49:596',2,5.56,1
562,'2025/06/11 12:12:49:598',2,5.56,1
563,'2025/06/11 12:12:49:601',2,5.56,1
564,'2025/06/11 12:12:49:603',2,5.56,1
565,'2025/06/11 12:12:49:605',2,5.56,1
566,'2025/06/11 12:12:49:607',2,5.56,1
567,'2025/06/11 12:12:49:610',2,5.56,1
568,'2025/06/11 12:12:49:612',2,5.56,1
569,'2025/06/11 12:12:49:615',2,5.56,1
570,'2025/06/11 12:12:49:617',2,5.56,1
571,'2025/06/11 12:12:49:620',2,5.56,1
572,'2025/06/11 12:12:49:623',2,5.56,1
573,'2025/06/11 12:12:49:625',2,5.56,1
574,'2025/06/11 12:12:49:627',2,5.56,1
575,'2025/06/11 12:12:49:629',2,5.56,1
576,'2025/06/11 12:12:49:632',2,5.56,1
577,'2025/06/11 12:12:49:634',2,5.56,1
578,'2025/06/11 12:12:49:637',2,5.56,1
579,'2025/06/11 12:12:49:639',2,5.56,1
580,'2025/06/11 12:12:49:642',2,5.56,1
581,'2025/06/11 12:12:49:644',2,5.56,1
582,'2025/06/11 12:12:49:646',2,5.56,1
583,'2025/06/11 12:12:49:649',2,5.56,1
584,'2025/06/11 12:12:49:651',2,5.56,1
585,'2025/06/11 12:12:49:654',2,5.56,1
586,'2025/06/11 12:12:49:656',2,5.56,1
587,'2025/06/11 12:12:49:659',2,5.56,1
588,'2025/06/11 12:12:49:660',2,5.56,1
589,'2025/06/11 12:12:49:663',2,5.56,1
590,'2025/06/11 12:12:49:665',2,5.56,1
591,'2025/06/11 12:12:49:668',2,5.56,1
592,'2025/06/11 12:12:49:670',2,5.56,1
593,'2025/06/11 12:12:49:672',2,5.56,1
594,'2025/06/11 12:12:49:674',2,5.56,1
595,'2025/06/11 12:12:49:677',2,5.56,1
596,'2025/06/11 12:12:49:679',2,5.56,1
597,'2025/06/11 12:12:49:682',2,5.56,1
598,'2025/06/11 12:12:49:684',2,5.56,1
599,'2025/06/11 12:12:49:686',2,5.56,1
600,'2025/06/11 12:12:49:689',2,5.56,1
601,'2025/06/11 12:12:49:691',2,5.56,1
602,'2025/06/11 12:12:49:694',2,5.56,1
603,'2025/06/11 12:12:49:696',2,5.56,1
604,'2025/06/11 12:12:49:698',2,5.56,1
605,'2025/06/11 12:12:49:700',2,5.56,1
606,'2025/06/11 12:12:49:703',2,5.56,1
607,'2025/06/11 12:12:49:705',2,5.56,1
608,'2025/06/11 12:12:49:708',2,5.56,1
609,'2025/06/11 12:12:49:710',2,5.56,1
610,'2025/06/11 12:12:49:712',2,5.56,1
611,'2025/06/11 12:12:49:714',2,5.56,1
612,'2025/06/11 12:12:49:717',2,5.56,1
613,'2025/06/11 12:12:49:719',2,5.56,1
614,'2025/06/11 12:12:49:722',2,5.56,1
615,'2025/06/11 12:12:49:724',2,5.56,1
616,'2025/06/11 12:12:49:726',2,5.56,1
617,'2025/06/11 12:12:49:728',2,5.56,1
618,'2025/06/11 12:12:49:729',2,5.56,1
619,'2025/06/11 12:12:49:733',2,5.56,1
620,'2025/06/11 12:12:49:734',2,5.56,1
621,'2025/06/11 12:12:49:738',2,5.56,1
622,'2025/06/11 12:12:49:739',2,5.56,1
623,'2025/06/11 12:12:49:742',2,5.56,1
624,'2025/06/11 12:12:49:745',2,5.56,1
625,'2025/06/11 12:12:49:748',2,5.56,1
626,'2025/06/11 12:12:49:750',2,5.56,1
627,'2025/06/11 12:12:49:752',2,5.56,1
628,'2025/06/11 12:12:49:754',2,5.56,1
629,'2025/06/11 12:12:49:756',2,5.56,1
630,'2025/06/11 12:12:49:759',2,5.56,1
631,'2025/06/11 12:12:49:762',2,5.56,1
632,'2025/06/11 12:12:49:765',2,5.56,1
633,'2025/06/11 12:12:49:767',2,5.56,1
634,'2025/06/11 12:12:49:769',2,5.56,1
635,'2025/06/11 12:12:49:772',2,5.56,1
636,'2025/06/11 12:12:49:774',2,5.56,1
637,'2025/06/11 12:12:49:776',2,5.56,1
638,'2025/06/11 12:12:49:779',2,5.56,1
639,'2025/06/11 12:12:49:781',2,5.56,1
640,'2025/06/11 12:12:49:783',2,5.56,1
641,'2025/06/11 12:12:49:785',2,5.56,1
642,'2025/06/11 12:12:49:788',2,5.56,1
643,'2025/06/11 12:12:49:790',2,5.56,1
644,'2025/06/11 12:12:49:793',2,5.56,1
645,'2025/06/11 12:12:49:795',2,5.56,1
646,'2025/06/11 12:12:49:797',2,5.56,1
647,'2025/06/11 12:12:49:799',2,5.56,1
648,'2025/06/11 12:12:49:802',2,5.56,1
649,'2025/06/11 12:12:49:804',2,5.56,1
650,'2025/06/11 12:12:49:806',2,5.56,1
651,'2025/06/11 12:12:49:809',2,5.56,1
652,'2025/06/11 12:12:49:811',2,5.56,1
653,'2025/06/11 12:12:49:814',2,5.56,1
654,'2025/06/11 12:12:49:817',2,5.56,1
655,'2025/06/11 12:12:49:819',2,5.56,1
656,'2025/06/11 12:12:49:823',2,5.56,1
657,'2025/06/11 12:12:49:825',2,5.56,1
658,'2025/06/11 12:12:49:827',2,5.56,1
659,'2025/06/11 12:12:49:830',2,5.56,1
660,'2025/06/11 12:12:49:833',2,5.56,1
661,'2025/06/11 12:12:49:835',2,5.56,1
